%nprocshared=8
%nprocl=1
# freq b3lyp/def2tzvp geom=connectivity

pc41oh freq step30

0 1
 C                  1.59239300    0.07868100    0.03561600
 C                  1.16353200   -1.35309600   -0.07077100
 H                  1.25479200   -1.67305200   -1.11084900
 H                  1.80585800   -1.96923600    0.55173200
 H                  0.11885800   -1.47218600    0.21510600
 O                  2.57779400    0.48531400    0.58836300
 C                 -3.11030500    0.28717700    0.41238200
 H                 -3.90651500   -0.41733300    0.65010300
 H                 -3.53902600    1.09912400   -0.18551700
 H                 -2.73214600    0.70603800    1.35218100
 O                 -2.11062600   -0.42829900   -0.29733100
 H                 -1.39061900    0.17431600   -0.55026900
 O                  0.71371500    0.90253300   -0.62413500
 H                  1.06801000    1.79937600   -0.52101800

 1 2 1.0 6 2.0 13 1.0
 2 3 1.0 4 1.0 5 1.0
 3
 4
 5
 6
 7 8 1.0 9 1.0 10 1.0 11 1.0
 8
 9
 10
 11 12 1.0
 12
 13 14 1.0
 14

