%nprocshared=8
%nprocl=1
# opt b3lyp/def2tzvp geom=connectivity optcyc=30

pc611oh opt

0 1
 C                 -1.25901700   -0.21042400    0.14611100
 H                 -0.10563500   -0.83472000    1.79180400
 C                 -1.79337700   -1.08477400   -0.94652700
 H                 -2.86651300   -0.88476700   -1.08754800
 H                 -1.29066800   -0.90599400   -1.90883400
 H                 -1.67426500   -2.15021700   -0.69712600
 O                 -1.82662800    0.45113800    1.00443400
 O                 -0.23257000    0.70867700   -0.66112300
 O                 -0.20303100   -1.12794900    0.86476200
 O                  1.77237600   -0.69488100   -0.47714000
 C                  2.89771500   -0.10490300    0.20693200
 H                  3.46509200    0.44703900   -0.55231100
 H                  2.57146300    0.55643100    1.01343700
 H                  3.49869300   -0.93653200    0.59444100
 H                  0.99185400   -1.15300000    0.31412800
 H                  0.94355200    0.16297000   -0.76890900
 C                 -0.08288200    2.05120000   -0.14581900
 H                  0.30648000    2.63572000   -0.98340400
 H                 -1.08074200    2.40766400    0.15597800
 H                  0.58488000    2.05292700    0.71669600

 1 3 1.0 7 2.0
 2 9 1.0
 3 4 1.0 5 1.0 6 1.0
 4
 5
 6
 7
 8 17 1.0
 9
 10 11 1.0
 11 12 1.0 13 1.0 14 1.0
 12
 13
 14
 15
 16
 17 18 1.0 19 1.0 20 1.0
 18
 19
 20

