%nprocshared=8
%nprocl=1
# freq b3lyp/def2tzvp geom=connectivity

pc611oh freq step15

0 1
 C                 -1.60641400   -0.75768600    0.19022900
 H                 -0.57443800   -1.09442800    1.73365900
 C                 -1.67121400   -1.06211200   -1.27341700
 H                 -2.13011900   -0.21910400   -1.78482800
 H                 -0.68720400   -1.25878900   -1.69103500
 H                 -2.30166500   -1.94319100   -1.41625100
 O                 -2.42025200   -0.15543300    0.83268400
 O                 -0.05280000    1.53917300   -0.64356900
 O                 -0.50677100   -1.31735400    0.79164800
 O                  2.10216400   -0.44972100   -0.40430800
 C                  3.34708100   -0.67855400    0.23486700
 H                  4.09956200   -0.11537300   -0.31636800
 H                  3.35039700   -0.33395800    1.27538900
 H                  3.62560500   -1.73791300    0.21437700
 H                  1.39937500   -0.93288900    0.05088200
 H                  0.84248600    1.17343800   -0.67250000
 C                 -0.10244900    2.62592200    0.26054000
 H                  0.29350400    3.54747900   -0.18470900
 H                 -1.14877300    2.79081200    0.52077200
 H                  0.45052300    2.42518000    1.18566100

 1 3 1.0 7 2.0 9 1.0
 2 9 1.0
 3 4 1.0 5 1.0 6 1.0
 4
 5
 6
 7
 8 16 1.0 17 1.0
 9
 10 11 1.0 15 1.0
 11 12 1.0 13 1.0 14 1.0
 12
 13
 14
 15
 16
 17 18 1.0 19 1.0 20 1.0
 18
 19
 20

