%nprocshared=8
%nprocl=1
# opt b3lyp/def2tzvp geom=connectivity optcyc=30

pc621oh opt

0 1
 C                 -1.04305500   -0.39004200    0.22264400
 C                 -1.63029500   -1.31658600   -0.81824300
 H                 -2.47802000   -1.87746200   -0.40302800
 H                 -1.96179900   -0.78319700   -1.71770600
 H                 -0.88688900   -2.05941800   -1.14284300
 O                 -1.95979100    0.47367300    0.84061000
 O                 -0.22305900    0.62806900   -0.76440400
 O                 -0.15600500   -0.79769500    1.06173000
 O                  1.80284400   -0.72727400   -0.36524900
 C                  2.92932300   -0.05385600    0.24198000
 H                  3.47000400    0.43634900   -0.57434300
 H                  2.59213500    0.66663800    0.99358900
 H                  3.55104200   -0.83229800    0.70031000
 H                  1.07964000   -1.08663400    0.47876400
 H                  0.95374600    0.11795700   -0.76809500
 C                 -0.09651200    1.97591600   -0.24969900
 H                  0.68334500    2.45990900   -0.84111300
 H                 -1.06460900    2.46472800   -0.39964100
 H                  0.14514300    1.94418000    0.81993500
 H                 -2.75241500    0.64247000    0.29258400

 1 2 1.0 6 1.0 8 1.5
 2 3 1.0 4 1.0 5 1.0
 3
 4
 5
 6 20 1.0
 7 16 1.0
 8
 9 10 1.0
 10 11 1.0 12 1.0 13 1.0
 11
 12
 13
 14
 15
 16 17 1.0 18 1.0 19 1.0
 17
 18
 19
 20

