%nprocshared=8
%nprocl=1
# freq b3lyp/def2tzvp geom=connectivity

pc621 freqs30

0 1
 C                 -1.96580400   -0.21697000    0.05404200
 C                 -1.70864200    0.64952500   -1.14886800
 H                 -2.57628300    1.23816300   -1.44806700
 H                 -0.87592400    1.31987100   -0.91106500
 H                 -1.39203500    0.02233500   -1.98042000
 O                 -3.00364800    0.12502200    0.84825000
 O                  1.33813600    1.59877900   -0.37432500
 O                 -1.29058700   -1.16744400    0.36213500
 O                  1.39783000   -1.20576100   -0.46611900
 C                  2.22090100   -2.18674300    0.14943500
 H                  3.24795800   -1.99209500   -0.15814600
 H                  2.16691100   -2.13980400    1.24195000
 H                  1.94840600   -3.19620200   -0.17367100
 H                  0.46955600   -1.34645200   -0.20508700
 H                  1.52081700    0.64038500   -0.41126900
 C                  2.16469600    2.19267100    0.60792300
 H                  3.22928400    2.10127200    0.36082100
 H                  1.91847300    3.25436200    0.65067900
 H                  2.00195600    1.76354300    1.60412100
 H                 -3.45987800    0.89896900    0.49543200

 1 2 1.0 6 1.0 8 2.0
 2 3 1.0 4 1.0 5 1.0
 3
 4
 5
 6 20 1.0
 7 15 1.0 16 1.0
 8
 9 10 1.0 14 1.0
 10 11 1.0 12 1.0 13 1.0
 11
 12
 13
 14
 15
 16 17 1.0 18 1.0 19 1.0
 17
 18
 19
 20

