%chk=C:\Users\LawalM\Desktop\Def2TZVP-COOH\pc624.chk
# freq b3lyp/def2tzvp geom=connectivity

freq-s8

0 1
 C                  1.46281200   -0.87530500   -0.02861000
 O                  2.46367300   -0.34451400   -0.75925300
 O                  0.55814400   -1.51472100   -0.54563900
 O                 -0.05497500    1.51207100   -0.29064600
 O                 -2.14650000   -0.40620800   -0.52262700
 C                 -3.10074600   -0.99903000    0.35143000
 H                 -2.70586900   -1.12083700    1.37054900
 H                 -3.96245600   -0.32717700    0.38695700
 H                 -3.43361100   -1.97688600   -0.02231900
 H                 -0.94392600    1.10035900   -0.33110600
 H                 -1.35192600   -0.97425600   -0.57073900
 C                  1.64181300   -0.64956400    1.44834100
 H                  2.25081100   -1.46191600    1.86453100
 H                  2.14811700    0.29825400    1.63826200
 H                  0.66565200   -0.66345800    1.93567700
 C                 -0.16405600    2.85554600    0.15501100
 H                  0.84421100    3.28012800    0.14619500
 H                 -0.79960600    3.45822400   -0.51036700
 H                 -0.56147300    2.92213800    1.17952300
 H                  2.24840100   -0.49747800   -1.69887500

 1 2 1.0 3 2.0 12 1.0
 2 20 1.0
 3
 4 10 1.0 16 1.0
 5 6 1.0 11 1.0
 6 7 1.0 8 1.0 9 1.0
 7
 8
 9
 10
 11
 12 13 1.0 14 1.0 15 1.0
 13
 14
 15
 16 17 1.0 18 1.0 19 1.0
 17
 18
 19
 20

