%nprocshared=8
%nprocl=1
# freq b3lyp/def2tzvp geom=connectivity

pc621oh freqs22

0 1
 C                 -1.88268700   -0.29824100    0.10561400
 C                 -1.71934800    0.18068400   -1.31124600
 H                 -2.67973300    0.37993300   -1.78924300
 H                 -1.12838300    1.10149000   -1.28948000
 H                 -1.16848900   -0.55740900   -1.89046500
 O                 -2.84347200    0.30462100    0.83951100
 O                  1.11085500    1.63628700   -0.39819200
 O                 -1.20535800   -1.14742100    0.62969200
 O                  1.38171100   -1.18123900   -0.37627100
 C                  2.36438000   -2.06013900    0.15253400
 H                  3.30900100   -1.82750000   -0.33839500
 H                  2.49049900   -1.93254600    1.23284400
 H                  2.11667300   -3.10652100   -0.05172100
 H                  0.51418700   -1.36895800    0.02694300
 H                  1.35911800    0.69397300   -0.38944200
 C                  1.96603100    2.35283500    0.47066300
 H                  3.01085800    2.32483400    0.13783000
 H                  1.63968700    3.39355100    0.47275700
 H                  1.91973500    1.97868200    1.50070100
 H                 -3.30330500    0.97166000    0.31436500

 1 2 1.0 6 1.0 8 2.0
 2 3 1.0 4 1.0 5 1.0
 3
 4
 5
 6 20 1.0
 7 15 1.0 16 1.0
 8
 9 10 1.0 14 1.0
 10 11 1.0 12 1.0 13 1.0
 11
 12
 13
 14
 15
 16 17 1.0 18 1.0 19 1.0
 17
 18
 19
 20

