%nprocshared=8
%nprocl=1
# opt freq b3lyp/def2tzvp geom=connectivity

pc631

0 1
 O                  0.04414400    0.13615400   -1.08631300
 O                 -2.13390500   -0.40742200   -0.13628300
 H                 -0.93020000   -0.12518300   -0.92635100
 H                 -1.56280500   -0.46881400    0.68559500
 O                 -0.15294900   -0.55547600    1.28340100
 H                  0.12656600    0.14534000    1.89562500
 C                  0.81672400   -0.38262800   -0.11308800
 C                  1.28732200   -1.80793400   -0.29635200
 H                  0.42020800   -2.46722600   -0.38453400
 H                  1.88634200   -2.11511100    0.56332000
 H                  1.88820300   -1.87939600   -1.20933400
 O                  1.86086700    0.42984400    0.22812900
 C                 -3.05264700    0.66552600   -0.04139500
 H                 -2.55314200    1.61406100    0.20739600
 H                 -3.54534900    0.77085200   -1.01187800
 H                 -3.81499600    0.45175700    0.71832900
 C                  1.71054400    1.84252300    0.02434800
 H                  2.62552600    2.28394000    0.42299400
 H                  1.60605900    2.07366100   -1.03814900
 H                  0.84234000    2.23555500    0.56616700

 1 7 1.0
 2 4 1.0 13 1.0
 3
 4
 5 6 1.0
 6
 7 8 1.0 12 1.0
 8 9 1.0 10 1.0 11 1.0
 9
 10
 11
 12 17 1.0
 13 14 1.0 15 1.0 16 1.0
 14
 15
 16
 17 18 1.0 19 1.0 20 1.0
 18
 19
 20

