%nprocshared=8
%nprocl=1
# freq b3lyp/def2tzvp scrf=(cpcm,solvent=methanol) geom=connectivity

ts611ohsol meoh

0 1
 C                 -1.29458900   -0.22520600    0.14399800
 H                 -0.17364600   -1.19779300    1.69206000
 C                 -1.84465400   -0.94598500   -1.05163600
 H                 -2.48930600   -0.25716700   -1.59670400
 H                 -1.05495700   -1.29906300   -1.70950100
 H                 -2.43255100   -1.79334200   -0.70062700
 O                 -1.89547800    0.28279400    1.04425100
 O                 -0.16165800    0.85179500   -0.59902500
 O                 -0.13929100   -1.37106400    0.74239800
 O                  1.74473100   -0.57869000   -0.47585500
 C                  2.95329600   -0.17192500    0.15536700
 H                  3.47856100    0.53481400   -0.48845800
 H                  2.76857100    0.30230200    1.12498900
 H                  3.58931500   -1.04524900    0.30595200
 H                  0.95330800   -1.10556900    0.22646600
 H                  0.94158200    0.24770700   -0.62998500
 C                 -0.09874600    2.13176200    0.01265900
 H                 -0.28698700    2.90201300   -0.73805000
 H                 -0.85657200    2.19658600    0.79608600
 H                  0.88440500    2.30421600    0.46128900

 1 3 1.0 7 2.0
 2 9 1.0
 3 4 1.0 5 1.0 6 1.0
 4
 5
 6
 7
 8 17 1.0
 9
 10 11 1.0
 11 12 1.0 13 1.0 14 1.0
 12
 13
 14
 15
 16
 17 18 1.0 19 1.0 20 1.0
 18
 19
 20

