%nprocshared=8
%nprocl=1
# opt=(calcfc,ts,noeigentest) freq=noraman b3lyp/def2tzvp geom=connectivity

ts622oh

0 1
 C                 -0.89807900   -0.60451200    0.07318800
 C                 -1.98605500   -0.96590600   -0.90275700
 H                 -2.46684200   -1.90957500   -0.60706500
 H                 -2.75115500   -0.19229500   -1.00911800
 H                 -1.55042000   -1.13107300   -1.90223400
 O                 -1.34116100   -0.10795700    1.32402600
 O                 -0.22887100    0.74803100   -0.56426900
 O                  0.13786800   -1.34134000    0.19710700
 O                  1.94114100    0.20882300    0.52584000
 H                  1.28701600   -0.68989300    0.80269400
 H                  0.97675800    0.69379000   -0.14594000
 C                 -0.78673800    2.01929200   -0.17231300
 H                 -0.16258600    2.77941300   -0.65317800
 H                 -1.80875400    2.06123400   -0.55784500
 H                 -0.76871100    2.11911000    0.91961600
 H                 -2.29006200    0.09004300    1.36667600
 C                  2.97136800   -0.25342800   -0.38503900
 H                  2.53660500   -0.89563700   -1.15914600
 H                  3.42279500    0.64672300   -0.81315500
 H                  3.70056800   -0.80498200    0.21859600

 1 2 1.0 6 1.0 8 2.0
 2 3 1.0 4 1.0 5 1.0
 3
 4
 5
 6 16 1.0
 7 12 1.0
 8
 9 17 1.0
 10
 11
 12 13 1.0 14 1.0 15 1.0
 13
 14
 15
 16
 17 18 1.0 19 1.0 20 1.0
 18
 19
 20

