%chk=C:\Users\LawalM\Desktop\RCOF\fac-ccpvtz-lan.chk
# opt freq b3lyp/genecp geom=connectivity gfinput pseudo=read

gen calculation FAc-C H O=aug-cc-pvtz/F=lanl2dz

0 1
 C                  1.37869300   -0.03124700    0.00000000
 H                  1.76139500    0.50901500   -0.88336400
 H                  1.84595300   -1.03090900   -0.00006800
 H                  1.76139300    0.50888900    0.88344100
 C                 -0.09920800   -0.13237300   -0.00000300
 O                 -0.82872400   -1.07776800    0.00000100
 F                 -0.71287400    1.06854000    0.00000100

 1 2 1.0 3 1.0 4 1.0 5 1.0
 2
 3
 4
 5 6 2.0 7 1.0
 6
 7

C H O 0
AUG-cc-pVTZ
****
F 0
LANL2DZ
****

F 0
LANL2DZ











