%nprocshared=8
%nprocl=1
# freq=noraman b3lyp/genecp geom=connectivity gfinput pseudo=read

gen calculation freq ts624Br-C H O=aug-ccpvtz/Br=Def2TZVP

0 1
 C                  0.24568700    0.68034400    0.49543300
 O                 -0.45757400    0.25008300    1.45966100
 O                 -0.55695100    0.78214300   -0.78826800
 O                 -1.86089100   -1.08611700    0.06740900
 C                 -3.29814500   -1.19755300    0.10402400
 H                 -3.76507100   -0.21757400    0.19616400
 H                 -3.62176000   -1.68630900   -0.81071900
 H                 -3.55465400   -1.81488300    0.95975200
 H                 -1.46582700   -0.34608600   -0.53950000
 H                 -1.36262300   -0.64530400    0.92209000
 C                  1.09907200    1.90657200    0.72683000
 H                  1.58901100    1.78353800    1.69001600
 H                  1.84718900    2.03473200   -0.04800000
 H                  0.46804800    2.79447800    0.78763500
 C                 -1.28505000    2.00537000   -0.94452800
 H                 -0.61653700    2.82037200   -1.21947400
 H                 -1.99008400    1.84851500   -1.76032200
 H                 -1.83337400    2.27354500   -0.03735100
 Br                 1.62113200   -0.82235100   -0.23832200

 1 2 2.0 11 1.0
 2
 3 15 1.0
 4 5 1.0
 5 6 1.0 7 1.0 8 1.0
 6
 7
 8
 9
 10
 11 12 1.0 13 1.0 14 1.0
 12
 13
 14
 15 16 1.0 17 1.0 18 1.0
 16
 17
 18
 19

C H O 0
AUG-cc-pVTZ
****
Br 0
Def2TZVP
****

Br 0
Def2TZVP





