%nprocshared=8
%nprocl=1
# opt=(calcfc,ts,noeigentest) freq=noraman b3lyp/gen pseudo=read gfinput geom=connectivity

gen calculation-ts624I1 C H O=6-31+g(d)/I=def2tzvp

0 1
 C                 -0.29145300    0.82477900    0.55335300
 O                 -0.91911700    0.27291800    1.50016200
 O                 -1.09709000    0.68115500   -0.81787300
 O                 -1.99014400   -1.38826200    0.03532700
 C                 -3.41570200   -1.60375400    0.13246700
 H                 -3.92750100   -0.69475600    0.46567900
 H                 -3.77079100   -1.90293600   -0.85512400
 H                 -3.58559800   -2.41278500    0.84525100
 H                 -1.66476000   -0.48640000   -0.59193100
 H                 -1.58866100   -0.93484000    0.90174500
 C                  0.20623500    2.24775000    0.70846200
 H                  0.94084600    2.25895500    1.51654200
 H                  0.67693000    2.61938100   -0.20352700
 H                 -0.62931300    2.89793300    0.99939300
 C                 -2.08305700    1.70474500   -1.05153800
 H                 -1.58546500    2.64033000   -1.31853400
 H                 -2.69031500    1.37282400   -1.89839900
 H                 -2.71991600    1.85757600   -0.17122800
 I                  1.62451400   -0.42986600   -0.14126900

 1 2 2.0 11 1.0
 2
 3 15 1.0
 4 5 1.0
 5 6 1.0 7 1.0 8 1.0
 6
 7
 8
 9
 10
 11 12 1.0 13 1.0 14 1.0
 12
 13
 14
 15 16 1.0 17 1.0 18 1.0
 16
 17
 18
 19

C H O 0
6-31+G(d)
****
I 0
Def2TZVP
****

I 0
Def2TZVP




