%nprocshared=8
%nprocl=1
# opt=(calcfc,ts,noeigentest) freq=noraman b3lyp/gen pseudo=read gfinput geom=connectivity

gen calculation ts624F-C H O=6-31+g(d)/F=LANL2DZ

0 1
 C                  1.03863800   -0.44422800    0.15045800
 O                  0.14065700   -0.92438400    0.90513800
 O                  0.23412500    0.69406900   -0.72017800
 O                 -1.87107500   -0.61549600   -0.42044500
 C                 -2.86905900    0.02123600    0.41466700
 H                 -2.40054900    0.51502200    1.27139400
 H                 -3.38905100    0.73372600   -0.23411000
 H                 -3.55655200   -0.76607900    0.74698000
 H                 -0.92912000    0.23640800   -0.72988500
 H                 -1.18981300   -1.20177200    0.23529300
 C                  2.31780100    0.14146900    0.67280900
 H                  3.00343200   -0.66651600    0.98211100
 H                  2.84725000    0.74589200   -0.07611400
 H                  2.13892000    0.75634200    1.56505500
 C                  0.16567600    2.00623800   -0.11716900
 H                  1.15584800    2.46142200   -0.22981100
 H                 -0.57379500    2.57023100   -0.69535000
 H                 -0.11844000    1.92898500    0.93698900
 F                  1.22932000   -1.21060700   -0.95702900

 1 2 2.0 11 1.0 19 1.0
 2
 3 15 1.0
 4 5 1.0
 5 6 1.0 7 1.0 8 1.0
 6
 7
 8
 9
 10
 11 12 1.0 13 1.0 14 1.0
 12
 13
 14
 15 16 1.0 17 1.0 18 1.0
 16
 17
 18
 19

C H O 0
6-31+G(d)
****
F 0
LANL2DZ
****

F 0
LANL2DZ




