%nprocshared=8
%nprocl=1
# opt freq b3lyp/def2tzvp geom=connectivity

Title Card Required

0 1
 C                  0.00270900    0.84131800    0.28694000
 C                 -0.47517600    1.80379100   -0.74820000
 H                 -1.32554200    2.33985600   -0.31356700
 H                  0.33748700    2.50665400   -0.96169900
 H                 -0.79560700    1.29374300   -1.65305500
 O                  0.59522400    0.94884900    1.29270900
 C                  2.11394200   -1.03758100   -0.12622000
 H                  2.90626300   -0.30833000    0.04789200
 H                  2.51177000   -1.88640100   -0.69118000
 H                  1.70518600   -1.37845500    0.83082000
 O                  1.10467900   -0.38266100   -0.90928700
 H                  0.34277400   -0.99372200   -1.00210800
 Cl                -1.50446700   -0.85609500    0.13398000

 1 2 1.0 6 2.0
 2 3 1.0 4 1.0 5 1.0
 3
 4
 5
 6
 7 8 1.0 9 1.0 10 1.0 11 1.0
 8
 9
 10
 11 12 1.0
 12
 13

