%chk=C:\Users\LawalM\Desktop\Def2TZVP-RCOCl\pc613.chk
# freq b3lyp/def2tzvp geom=connectivity

frq-s20

0 1
 C                  1.92972900   -0.48945000    0.42397000
 C                 -3.00356100   -1.85171900   -0.23305100
 H                 -3.21609200   -1.68969700   -1.29980200
 H                 -2.89516700   -2.92612700   -0.05809400
 H                 -3.85708500   -1.48864800    0.35805200
 C                  1.40920100   -1.85175800    0.09807100
 H                  1.69399300   -2.53739600    0.90018600
 H                  0.31218200   -1.79479300    0.02494300
 H                  1.80094900   -2.19059600   -0.86474600
 O                  2.39469000   -0.07405300    1.43269700
 O                 -1.78584900   -1.23569000    0.16545700
 O                 -1.56212400    1.52493000   -0.33683500
 C                 -1.70258900    2.49681000    0.70491400
 H                 -1.03599500    2.28238300    1.54985400
 H                 -1.50523500    3.50869000    0.32955700
 H                 -2.73917200    2.44188000    1.04471600
 H                 -0.64652100    1.53773500   -0.66473400
 H                 -1.83991800   -0.26896500    0.00736100
 Cl                 1.75045000    0.68121900   -1.02242700

 1 6 1.0 10 2.0
 2 3 1.0 4 1.0 5 1.0 11 1.0
 3
 4
 5
 6 7 1.0 8 1.0 9 1.0
 7
 8
 9
 10
 11 18 1.0
 12 13 1.0 17 1.0
 13 14 1.0 15 1.0 16 1.0
 14
 15
 16
 17
 18
 19

