%nprocshared=8
%nprocl=1
# freq b3lyp/def2tzvp geom=connectivity

freq-s15

0 1
 C                 -1.83611900   -0.08437600    0.30379900
 C                 -2.40233700    0.53904900   -0.93468600
 H                 -3.10315400   -0.15539800   -1.40882000
 H                 -2.90316300    1.47183600   -0.66581900
 H                 -1.58304100    0.74689400   -1.62773900
 O                 -1.81528900    0.31643300    1.41938300
 O                  0.64500500    1.64124900   -0.61548600
 O                  2.28810400   -0.63264800   -0.41055100
 C                  3.46355800   -1.10664000    0.25036600
 H                  4.27392700   -0.43165000   -0.03395500
 H                  3.34919700   -1.08992100    1.34223200
 H                  3.71996300   -2.12298200   -0.07502400
 H                  1.53738600   -1.22053500   -0.20806700
 H                  1.40048300    1.01466300   -0.59053200
 C                  0.88575000    2.70190900    0.30245100
 H                  1.71863800    3.34151600   -0.02457000
 H                 -0.02333300    3.30830800    0.34292200
 H                  1.09607500    2.32714600    1.31427500
 Cl                -1.12297900   -1.76998800   -0.06136800

 1 2 1.0 6 2.0
 2 3 1.0 4 1.0 5 1.0
 3
 4
 5
 6
 7 14 1.0 15 1.0
 8 9 1.0 13 1.0
 9 10 1.0 11 1.0 12 1.0
 10
 11
 12
 13
 14
 15 16 1.0 17 1.0 18 1.0
 16
 17
 18
 19

