%nprocshared=8
%nprocl=1
# freq b3lyp/def2tzvp geom=connectivity

freq-s15

0 1
 C                  1.44753400   -0.13781500    0.62485600
 C                 -1.56672300    2.49515300   -0.18833200
 H                 -2.47812500    2.70291000   -0.76693700
 H                 -1.84818100    2.21209900    0.83612800
 H                 -0.96793000    3.40973200   -0.14835300
 C                  2.13987500    1.18278000    0.76044700
 H                  3.21878100    1.06998900    0.63121000
 H                  1.75351000    1.82958400   -0.03531800
 H                  1.90345800    1.61777200    1.73456100
 O                 -0.76548900    1.49449500   -0.81182000
 O                 -1.85883700   -1.05357300   -0.21432500
 C                 -3.10713900   -1.53139900    0.29414500
 H                 -3.88189400   -1.16419600   -0.38271800
 H                 -3.13577300   -2.62850000    0.30319600
 H                 -3.30432000   -1.15096700    1.30494100
 H                 -1.14288800   -1.30697900    0.39144200
 H                 -1.25681600    0.65113700   -0.77665600
 Cl                 1.97842200   -1.05210700   -0.86022800
 O                  0.62754300   -0.61705600    1.34935500

 1 6 1.0 18 1.0 19 2.0
 2 3 1.0 4 1.0 5 1.0 10 1.0
 3
 4
 5
 6 7 1.0 8 1.0 9 1.0
 7
 8
 9
 10 17 1.0
 11 12 1.0 16 1.0
 12 13 1.0 14 1.0 15 1.0
 13
 14
 15
 16
 17
 18
 19

