%nprocshared=8
%nprocl=1
# freq b3lyp/def2tzvp geom=connectivity

freq-s20

0 1
 C                  1.37053300   -0.70801200    0.40611900
 C                 -1.16575500    2.74377700   -0.23706900
 H                 -2.21325000    3.06741800   -0.14984300
 H                 -0.52531600    3.53116200    0.17098200
 H                 -0.92229800    2.60861800   -1.30037800
 C                  1.72776100   -0.01151200    1.68347600
 H                  2.79111700    0.22934200    1.73121400
 H                  1.14376300    0.91870900    1.69575500
 H                  1.42293800   -0.63474300    2.52806800
 O                 -0.91435800    1.56337600    0.51761400
 O                 -2.12484600   -0.75585600   -0.60177200
 C                 -3.19909700   -1.45410700    0.03137600
 H                 -4.07778800   -0.80846200   -0.03719000
 H                 -3.41442700   -2.40028700   -0.48164100
 H                 -2.98345800   -1.65379000    1.08946600
 H                 -1.31785000   -1.29864700   -0.55336700
 H                 -1.44380000    0.82729400    0.14253300
 Cl                 2.29890900   -0.10321500   -1.03111000
 O                  0.54648800   -1.56412500    0.25789000

 1 6 1.0 18 1.0 19 2.0
 2 3 1.0 4 1.0 5 1.0 10 1.0
 3
 4
 5
 6 7 1.0 8 1.0 9 1.0
 7
 8
 9
 10 17 1.0
 11 12 1.0 16 1.0
 12 13 1.0 14 1.0 15 1.0
 13
 14
 15
 16
 17
 18
 19

