%nprocshared=8
%nprocl=1
# freq b3lyp/def2tzvp geom=connectivity

freq s21

0 1
 O                 -0.04407800    0.10833200    1.27052200
 O                  2.25919300    0.33977300   -0.15296900
 H                  0.80162700    0.34036600    0.80321600
 H                  1.91311500   -0.30493500   -0.79847800
 C                 -1.08976100   -0.06538900    0.42837400
 C                 -2.18907800   -0.88955000    1.05364400
 H                 -1.79322600   -1.85202500    1.38035000
 H                 -2.99966400   -1.04217200    0.33942700
 H                 -2.57007500   -0.34010000    1.92240200
 O                 -1.61390100    1.04819300   -0.14946400
 C                  3.45240000   -0.17460300    0.45231100
 H                  4.24312100   -0.30493700   -0.29598700
 H                  3.77524200    0.56719100    1.18571000
 H                  3.26378800   -1.12831600    0.96086700
 C                 -0.72061700    2.06197200   -0.62323600
 H                 -1.36218300    2.84274900   -1.03315200
 H                 -0.11680300    2.46671300    0.19497100
 H                 -0.07333600    1.66110300   -1.41007300
 Cl                -0.38876400   -1.20415300   -1.10944300

 1 3 1.0 5 1.0
 2 4 1.0 11 1.0
 3
 4
 5 6 1.0 10 1.0
 6 7 1.0 8 1.0 9 1.0
 7
 8
 9
 10 15 1.0
 11 12 1.0 13 1.0 14 1.0
 12
 13
 14
 15 16 1.0 17 1.0 18 1.0
 16
 17
 18
 19

