%nprocshared=8
%nprocl=1
# opt=(calcfc,ts,noeigentest) freq=noraman b3lyp/def2tzvp geom=connectivity

Title Card Required

0 1
 C                  1.16285700   -0.42485600    0.28992800
 C                  1.26254900    2.14864000   -0.31357900
 H                  0.90081700    2.85649800   -1.06854000
 H                  1.10137600    2.51724100    0.70098000
 H                  2.32040800    1.91042900   -0.49694100
 C                  0.66877300   -0.33767900    1.68622100
 H                  0.74524800   -1.33197200    2.16891000
 H                  1.27591500    0.36526300    2.27697300
 H                 -0.39196300   -0.03944500    1.76804200
 O                  2.22466900   -0.61726700   -0.21014800
 O                  0.53700300    0.91704900   -0.53023200
 O                 -1.90288500    0.64203500   -0.61568400
 C                 -2.64223100    0.50682900    0.61619800
 H                 -2.96577200    1.52245000    0.86902300
 H                 -3.51077000   -0.13553000    0.42760400
 H                 -2.00245700    0.07429000    1.39963400
 H                 -1.53856200   -0.34079000   -0.90794200
 H                 -0.59009600    1.08023300   -0.37713600
 Cl                -0.28977200   -1.61004700   -0.56380600

 1 6 1.0 10 2.0
 2 3 1.0 4 1.0 5 1.0 11 1.0
 3
 4
 5
 6 7 1.0 8 1.0 9 1.0
 7
 8
 9
 10
 11
 12 13 1.0
 13 14 1.0 15 1.0 16 1.0
 14
 15
 16
 17
 18
 19

