%nprocshared=8
# opt=(calcfc,ts,noeigentest) freq=noraman b3lyp/def2tzvp geom=connectivity

ts622cl

0 1
 C                  0.65579000   -0.55942700    0.37951800
 C                  0.56928500    2.05953900    0.26732400
 H                  0.04975000    2.82375600    0.85571900
 H                  1.62296100    1.99097800    0.55786100
 H                  0.47945800    2.24317700   -0.80893300
 C                  1.67726800   -0.70304900    1.46199500
 H                  2.23194200   -1.64784800    1.33028200
 H                  2.41511300    0.10993700    1.47038900
 H                  1.19224500   -0.73537100    2.45002400
 O                 -0.08992900    0.82024100    0.62193100
 O                 -2.04978600    0.05525000   -0.69615600
 C                 -3.20593100   -0.18324200    0.15808300
 H                 -3.68439500    0.79305700    0.28678900
 H                 -3.86241100   -0.87049400   -0.38792100
 H                 -2.89143000   -0.61287900    1.11590200
 H                 -1.43036800   -0.86772800   -0.69090200
 H                 -1.18575600    0.70227900   -0.04004700
 Cl                 1.55856300   -0.22398500   -1.23503300
 O                 -0.31168000   -1.35099500    0.23108500

 1 6 1.0 19 2.0
 2 3 1.0 4 1.0 5 1.0 10 1.0
 3
 4
 5
 6 7 1.0 8 1.0 9 1.0
 7
 8
 9
 10
 11 12 1.0
 12 13 1.0 14 1.0 15 1.0
 13
 14
 15
 16
 17
 18
 19

