%nprocshared=8
%nprocl=1
# opt=(calcfc,ts,noeigentest) freq=noraman b3lyp/def2tzvp geom=connectivity

Title Card Required

0 1
 O                 -0.30616900    0.10839400    1.38564600
 O                  1.95596700   -0.61881700    0.75607600
 H                  0.84963600    0.06384600    1.19804400
 H                  1.38252300   -1.23290400    0.06420100
 C                 -1.11856800    0.07040100    0.35773200
 C                 -2.44175100   -0.60001600    0.51190900
 H                 -2.31817300   -1.64121500    0.85824100
 H                 -2.99208400   -0.63427300   -0.44394900
 H                 -3.06756500   -0.07280500    1.25007900
 O                 -1.22780300    1.19130100   -0.42624500
 C                  2.82963800    0.23805400   -0.01361200
 H                  3.59150800   -0.39643200   -0.48208500
 H                  2.25568500    0.78667600   -0.77483800
 H                  3.28993200    0.91278100    0.71667700
 C                 -0.08199200    2.06774700   -0.53773900
 H                 -0.45847800    2.85618300   -1.20279400
 H                  0.17866700    2.46566800    0.44779900
 H                  0.75393300    1.52511400   -1.00452600
 Cl                -0.11561800   -1.21981100   -0.95649400

 1 5 1.5
 2 11 1.0
 3
 4
 5 6 1.0 10 1.0
 6 7 1.0 8 1.0 9 1.0
 7
 8
 9
 10 15 1.0
 11 12 1.0 13 1.0 14 1.0
 12
 13
 14
 15 16 1.0 17 1.0 18 1.0
 16
 17
 18
 19

