%nprocshared=8
%nprocl=1
# freq b3lyp/def2tzvp scrf=(cpcm,solvent=methanol) geom=connectivity

BrA Def2TZVP sol=meoh

0 1
 C                  1.00803000    0.23769000   -0.00010900
 C                  1.76652600   -1.06138300    0.00000900
 H                  1.49162500   -1.64689100    0.88311600
 H                  1.49125700   -1.64735200   -0.88266700
 H                  2.83956300   -0.85194500   -0.00024000
 O                  1.44768000    1.34196000    0.00003200
 Br                -0.97289200   -0.04706700    0.00000400

 1 2 1.0 6 2.0 7 1.0
 2 3 1.0 4 1.0 5 1.0
 3
 4
 5
 6
 7






