%nprocshared=8
%nprocl=1
# freq b3lyp/def2tzvp scrf=(cpcm,solvent=methanol) geom=connectivity

Title Card Required

0 1
 C                  1.32940100   -1.00082300   -0.00004500
 H                  1.09949200   -1.60553900    0.88320800
 H                  2.38364200   -0.71452900   -0.00059500
 H                  1.09868600   -1.60614400   -0.88266400
 C                  0.48009000    0.24013300   -0.00001400
 O                  0.84382600    1.37305400   -0.00023600
 Cl                -1.30525800   -0.14671000    0.00013500

 1 2 1.0 3 1.0 4 1.0 5 1.0
 2
 3
 4
 5 6 2.0 7 1.0
 6
 7

