%nprocshared=8
%nprocl=1
# freq=readisotopes b3lyp/def2tzvp scrf=(cpcm,solvent=methanol)
geom=connectivity

Title Card Required

0 1
 C                 -1.10405400   -0.45740600    0.02164800
 O                 -2.20987000   -0.17635100    0.53433900
 O                 -0.06305500   -0.95519900    1.13152300
 O                 -0.33571000    0.79361900   -0.56987300
 O                  1.86441100    0.35647000    0.42507200
 C                  2.99097500   -0.21897400   -0.29758000
 H                  2.64546000   -0.98684600   -0.99322400
 H                  3.48018000    0.59494000   -0.83193100
 H                  3.66420700   -0.64531800    0.44549200
 H                  1.06444800    0.70623200   -0.19168200
 H                  1.21488100   -0.35442300    0.91030700
 C                 -0.97453700   -1.50176200   -1.08012100
 H                  0.05928000   -1.64322700   -1.40834600
 H                 -1.36044000   -2.45619200   -0.70961000
 H                 -1.57426700   -1.18328200   -1.93821700
 H                 -0.46161900   -0.65147900    1.96737500
 C                 -0.87420900    2.06174200   -0.17198500
 H                 -1.93526800    2.11549900   -0.42527300
 H                 -0.75214800    2.23267000    0.90428500
 H                 -0.31996700    2.82151600   -0.72943200

 1 2 2.0 12 1.0
 2
 3 16 1.0
 4 17 1.0
 5 6 1.0
 6 7 1.0 8 1.0 9 1.0
 7
 8
 9
 10
 11
 12 13 1.0 14 1.0 15 1.0
 13
 14
 15
 16
 17 18 1.0 19 1.0 20 1.0
 18
 19
 20

373.15 1.0
12
16
16
16
16
12
1
1
1
1
1
12
1
1
1
1
12
1
1
1




