%nprocshared=8
%nprocl=1
# freq=noraman b3lyp/def2tzvp scrf=(cpcm,solvent=methanol)
geom=connectivity

ts612Ifreq def2tzvp

0 1
 C                  0.76524400   -1.53225800    0.57938500
 O                  0.64345000   -2.59427000    0.07859700
 O                  1.91630000   -0.55635200   -0.28071200
 O                  1.28042200    1.96079500   -0.34996200
 C                  1.59565600    2.99106900    0.59375600
 H                  1.27855600    3.96605400    0.20750600
 H                  1.11081600    2.80843900    1.56094900
 H                  2.68036600    2.99105700    0.72235800
 H                  1.67772000    0.44019800   -0.23733200
 H                  0.30045900    1.79471700   -0.36882500
 C                  0.90105600   -1.08332300    2.00102000
 H                  0.94341500    0.00061100    2.08761100
 H                  0.03379300   -1.45471200    2.55118200
 H                  1.81781700   -1.53429000    2.40450900
 C                  2.04001500   -0.95086700   -1.67193500
 H                  2.45965600   -1.95565400   -1.68940300
 H                  1.05495200   -0.93037000   -2.14592300
 H                  2.71966100   -0.24053000   -2.14615800
 I                 -1.48321500    0.13368600   -0.14232500

 1 2 2.0 11 1.0
 2
 3 15 1.0
 4 5 1.0 10 1.0
 5 6 1.0 7 1.0 8 1.0
 6
 7
 8
 9
 10
 11 12 1.0 13 1.0 14 1.0
 12
 13
 14
 15 16 1.0 17 1.0 18 1.0
 16
 17
 18
 19









