%chk=C:\Users\LawalM\Desktop\CPCE\RCOCl\pc41.chk
# b3lyp/6-31+g(d) geom=connectivity counterpoise=2

pc41

0 1 0 1 0 1
 C(Fragment=1)     -1.48853600    0.42552200    0.15606700
 C(Fragment=1)     -0.87433300    1.41044900   -0.79140900
 H(Fragment=1)     -1.12657900    1.14144500   -1.82193300
 H(Fragment=1)     -1.24761700    2.40950600   -0.55365200
 H(Fragment=1)      0.21705800    1.37038000   -0.69144400
 O(Fragment=1)     -2.21275200    0.62008200    1.07604900
 C(Fragment=1)      3.44340200    0.06328500    0.36783400
 H(Fragment=1)      3.90387800    1.05267600    0.31412500
 H(Fragment=1)      4.04987000   -0.63965300   -0.21992400
 H(Fragment=1)      3.42718700   -0.26176400    1.41727900
 O(Fragment=1)      2.12704200    0.19880100   -0.16507400
 H(Fragment=2)      1.67199100   -0.65758900   -0.12779600
 Cl(Fragment=2)    -0.98195900   -1.31538800   -0.23525900

 1 2 1.0 6 2.0 13 1.0
 2 3 1.0 4 1.0 5 1.0
 3
 4
 5
 6
 7 8 1.0 9 1.0 10 1.0 11 1.0
 8
 9
 10
 11 12 1.0
 12
 13

