%chk=C:\Users\LawalM\Desktop\CPCE\RCOCl\ts41.chk
# b3lyp/6-31+g(d) geom=connectivity counterpoise=2

cp ts41

0 1 0 1 0 1
 C(Fragment=1)      0.14689600    0.87073800    0.24902500
 C(Fragment=1)     -0.50962600    1.79484400   -0.71511800
 H(Fragment=1)     -1.33612900    2.28555500   -0.19541800
 H(Fragment=1)      0.23731500    2.54336200   -1.01080400
 H(Fragment=1)     -0.88429100    1.26793400   -1.58893200
 O(Fragment=1)      0.61786700    0.96835900    1.31752400
 C(Fragment=1)      2.00776100   -1.03924000   -0.07868200
 H(Fragment=1)      2.82429300   -0.33143900    0.06375200
 H(Fragment=1)      2.32212000   -1.85914800   -0.72746900
 H(Fragment=1)      1.65197900   -1.41743200    0.88269200
 O(Fragment=1)      0.94180300   -0.33798200   -0.76627800
 H(Fragment=2)      0.09201700   -0.91632100   -0.75042100
 Cl(Fragment=2)    -1.60322600   -0.96315200    0.12854600

 1 2 1.0 6 2.0
 2 3 1.0 4 1.0 5 1.0
 3
 4
 5
 6
 7 8 1.0 9 1.0 10 1.0 11 1.0
 8
 9
 10
 11
 12
 13

