%chk=C:\Users\LawalM\Desktop\CPCE\RCOCl\ts624-631g.chk
# b3lyp/6-31+g(d) geom=connectivity counterpoise=2

Title Card Required

0 1 0 1 0 1
 C(Fragment=1)      0.82013600    0.12280400    0.43046600
 O(Fragment=1)      0.06320400   -0.22736900    1.38446300
 Cl(Fragment=1)     1.57102800   -1.36855900   -0.54557100
 H(Fragment=1)      2.46991600    1.37397100   -0.22543500
 H(Fragment=1)      1.57509700    1.97575300    1.21186000
 C(Fragment=1)      1.95699800    1.08866900    0.69533200
 H(Fragment=1)      2.66792300    0.58859300    1.35793000
 H(Fragment=2)     -0.87925800    2.27021400    0.35633400
 H(Fragment=2)      0.37230000    2.73459700   -0.84018600
 O(Fragment=2)     -0.07643500    0.70630300   -0.79804300
 O(Fragment=2)     -1.76680700   -0.86417000   -0.10854600
 C(Fragment=2)     -3.10954400   -0.43939100    0.20205400
 H(Fragment=2)     -3.65032300   -0.32996900   -0.73994400
 H(Fragment=2)     -3.57968400   -1.21847800    0.80566900
 H(Fragment=2)     -3.10524400    0.50790900    0.75216200
 H(Fragment=2)     -1.11437900   -0.82368100    0.73816200
 H(Fragment=2)     -1.10336500   -0.09208400   -0.65183000
 H(Fragment=2)     -1.25149000    2.27003300   -1.39746100
 C(Fragment=2)     -0.47903100    2.07634000   -0.64711100

 1 6 1.0 2 2.0
 2
 3
 4 6 1.0
 5 6 1.0
 6 7 1.0
 7
 8 19 1.0
 9 19 1.0
 10 19 1.0
 11 12 1.0
 12 13 1.0 14 1.0 15 1.0
 13
 14
 15
 16
 17
 18 19 1.0
 19

