%nprocshared=8
%nprocl=1
# opt freq b3lyp/def2tzvp geom=connectivity

Title Card Required

0 1
 F                  0.68115944    1.23188404    0.00000000
 H                 -0.19884056    1.23188404    0.00000000

 1 2 1.0
 2

