%nprocshared=8
%nprocl=1
# opt freq b3lyp/def2tzvp geom=connectivity

int622f

0 1
 C                 -0.62236900    1.49118900   -0.15012400
 H                 -0.32433200    1.82027600   -1.15696100
 H                 -0.05975800    2.07724500    0.58764900
 H                 -1.68878600    1.75259100   -0.03590800
 C                 -0.42179800    0.00633900    0.00351000
 O                  0.79176000   -0.56981600   -0.45144000
 O                 -1.41598800   -0.69048400   -0.68546900
 C                  2.02962700    0.04949900   -0.04959300
 H                  2.12641400    0.04722600    1.04016700
 H                  2.77820000   -0.61256500   -0.50607400
 H                  2.09849000    1.05941400   -0.46246900
 H                 -1.15569800   -1.63174700   -0.86087400
 F                 -0.52149600   -0.41246700    1.29633200

 1 2 1.0 3 1.0 4 1.0 5 1.0
 2
 3
 4
 5 6 1.0 7 1.0 13 1.0
 6 8 1.0
 7 12 1.0
 8 9 1.0 10 1.0 11 1.0
 9
 10
 11
 12
 13

