%nprocshared=8
%nprocl=1
# freq b3lyp/def2tzvp geom=connectivity

freq s30

0 1
 C                 -1.65147000   -0.73530900    0.22028000
 O                 -1.82414100   -0.44944300    1.34990500
 O                  0.27470700    1.57621100   -0.61474200
 O                  2.05497600   -0.38659700    0.40668100
 C                  3.15442500   -1.00040500   -0.26018600
 H                  2.86930900   -1.39255500   -1.24105100
 H                  3.91257600   -0.23132500   -0.39781100
 H                  3.58221900   -1.80923700    0.33924400
 H                  1.00270400    0.99625300   -0.33368500
 H                  1.34366400   -1.03144500    0.51480200
 C                 -2.37232600   -0.33461900   -1.01745400
 H                 -2.63197200   -1.21439400   -1.60624500
 H                 -3.26317900    0.22879500   -0.75395800
 H                 -1.69421700    0.29138100   -1.59881100
 C                  0.18144100    2.67770800    0.27487600
 H                  1.08637300    3.29566200    0.25740900
 H                 -0.65726300    3.29367400   -0.05085600
 H                 -0.00445700    2.35936600    1.30640600
 F                 -0.60694600   -1.59464400   -0.09725600

 1 2 2.0 11 1.0 19 1.0
 2
 3 9 1.0 15 1.0
 4 5 1.0 10 1.0
 5 6 1.0 7 1.0 8 1.0
 6
 7
 8
 9
 10
 11 12 1.0 13 1.0 14 1.0
 12
 13
 14
 15 16 1.0 17 1.0 18 1.0
 16
 17
 18
 19

