%chk=C:\Users\LawalM\Desktop\DEF2TZVP-RCOF\pc611opt.chk
# opt=maxcycle=40 b3lyp/def2tzvp geom=connectivity

Title Card Required

0 1
 C                  1.26023295    0.77506595    1.51887775
 C                  1.10015595    0.65319795    3.00124775
 H                  1.80442195   -0.11440305    3.33376575
 H                  1.35933895    1.62022595    3.44799875
 H                  0.09014595    0.36136295    3.28209175
 O                  2.12513195    1.19168695    0.83770575
 O                 -0.18214500    1.69379400   -0.00790100
 O                 -2.08877600    0.03601100    0.72507600
 C                 -3.40833200   -0.00113200    0.17715800
 H                 -3.90766600    0.92094400    0.48386700
 H                 -3.38763600   -0.05655100   -0.91892600
 H                 -3.96630500   -0.85719800    0.57389800
 H                 -1.56641900   -0.74076500    0.41620800
 H                 -0.98190200    1.14464100    0.24476100
 C                 -0.21194400    1.97802600   -1.41650100
 H                 -1.09393600    2.58882300   -1.63098800
 H                  0.69147900    2.54148500   -1.65094700
 H                 -0.23062600    1.04758300   -1.99310900
 F                  0.37087295   -1.34140805    0.74801975

 1 2 1.0 6 2.0
 2 3 1.0 4 1.0 5 1.0
 3
 4
 5
 6
 7 14 1.0 15 1.0
 8 9 1.0 13 1.0
 9 10 1.0 11 1.0 12 1.0
 10
 11
 12
 13
 14
 15 16 1.0 17 1.0 18 1.0
 16
 17
 18
 19

