%nprocshared=8
%nprocl=1
# freq b3lyp/def2tzvp geom=connectivity

freq s20

0 1
 C                  1.49132100   -0.73757100    0.18213600
 C                  2.65363800    0.17403700    0.01188900
 H                  3.45761300   -0.33690600   -0.51844500
 H                  2.32095300    1.01592500   -0.59766300
 H                  2.99371600    0.52617900    0.98143000
 O                 -0.36377500    1.64198300   -0.55408900
 O                  0.88453400   -1.01298700    1.16497600
 O                 -1.90279100   -0.49844800    0.48658500
 C                 -2.62920100   -1.45899600   -0.27411800
 H                 -3.01675000   -2.25978700    0.36263200
 H                 -3.47139700   -0.93881300   -0.72800100
 H                 -2.01598400   -1.89640900   -1.06736400
 H                 -1.12632100   -0.92394400    0.87956800
 H                 -1.00568400    0.95818600   -0.28842400
 C                 -0.67743400    2.84324400    0.12964300
 H                 -0.64047200    2.72237200    1.21848100
 H                  0.06294200    3.59046600   -0.15877800
 H                 -1.66859400    3.22330400   -0.14280800
 F                  1.12625600   -1.29436000   -1.00196800

 1 2 1.0 7 2.0 19 1.0
 2 3 1.0 4 1.0 5 1.0
 3
 4
 5
 6 14 1.0 15 1.0
 7
 8 9 1.0 13 1.0
 9 10 1.0 11 1.0 12 1.0
 10
 11
 12
 13
 14
 15 16 1.0 17 1.0 18 1.0
 16
 17
 18
 19

