# freq b3lyp/def2tzvp geom=connectivity

freq-s8

0 1
 C                 -1.53392300   -0.60519300   -0.18332100
 O                 -0.73370500   -1.15275100   -0.88858700
 O                  0.32380700    1.42610500    0.57472300
 O                  1.64255300   -0.90607100    0.45505000
 C                  2.81711200   -1.07159000   -0.34664700
 H                  2.70136900   -0.60812900   -1.33548900
 H                  3.63615600   -0.58231300    0.18606400
 H                  3.05963100   -2.13481500   -0.47034300
 H                  0.92980900    0.63586500    0.63584200
 H                  0.86386800   -1.26114100   -0.03273400
 C                 -2.56977200    0.40948900   -0.53199100
 H                 -3.51463700   -0.11605500   -0.72792800
 H                 -2.71218800    1.09953900    0.29927500
 H                 -2.26860700    0.94639600   -1.43225300
 C                  0.96926700    2.44491900   -0.16965500
 H                  0.30580300    3.31653200   -0.17980400
 H                  1.92593100    2.75280000    0.28117100
 H                  1.15951100    2.14494800   -1.21411900
 F                 -1.56044400   -0.91085000    1.13894600

 1 2 2.0 11 1.0 19 1.0
 2
 3 9 1.0 15 1.0
 4 5 1.0 10 1.0
 5 6 1.0 7 1.0 8 1.0
 6
 7
 8
 9
 10
 11 12 1.0 13 1.0 14 1.0
 12
 13
 14
 15 16 1.0 17 1.0 18 1.0
 16
 17
 18
 19

