%nprocshared=8
%nprocl=1
# freq b3lyp/def2tzvp geom=connectivity

pc621F freq-s21

0 1
 C                 -2.47114600    0.50127500   -0.73785000
 H                 -2.61342600    0.19888200   -1.77678400
 H                 -1.82793200    1.39005900   -0.70940500
 H                 -3.42592800    0.73604400   -0.26116900
 C                  2.67518300   -1.60261800    0.29913800
 H                  3.62974400   -1.07429300    0.23843400
 H                  2.83380400   -2.65072900    0.01421000
 H                  2.30645100   -1.55933000    1.33290300
 C                  1.36925300    2.59422900    0.30526700
 H                  0.70814700    3.45113100    0.46628000
 H                  1.76560600    2.27528600    1.28112800
 H                  2.20772800    2.91822000   -0.32926800
 C                 -1.74747300   -0.56947000    0.00665800
 O                  1.78395300   -0.95073500   -0.60637700
 H                  0.91937300   -1.39878400   -0.58441500
 O                  0.59849000    1.57532400   -0.31488400
 H                  1.15783700    0.77928500   -0.44972800
 O                 -1.07510000   -1.46482900   -0.41637800
 F                 -1.89722900   -0.43159500    1.35995900

 1 2 1.0 3 1.0 4 1.0 13 1.0
 2
 3
 4
 5 6 1.0 7 1.0 8 1.0 14 1.0
 6
 7
 8
 9 10 1.0 11 1.0 12 1.0 16 1.0
 10
 11
 12
 13 18 2.0 19 1.0
 14 15 1.0
 15
 16 17 1.0
 17
 18
 19

