%nprocshared=8
%nprocl=1
# opt b3lyp/def2tzvp geom=connectivity optcyc=30

Title Card Required

0 1
 C                  0.81485500   -0.58474300    0.18630500
 C                  2.31271000   -0.62245800    0.05835200
 H                  2.61799200   -1.63173700    0.35494200
 H                  2.64920900   -0.43904600   -0.96427400
 H                  2.77366700    0.08534600    0.75084600
 O                  0.35264300    0.90941700   -0.64776500
 O                  0.24069900   -0.59312500    1.27887400
 O                 -1.82383000    0.54352500    0.43007700
 C                 -2.82856800   -0.22940100   -0.22556100
 H                 -3.55627200   -0.59659600    0.50703800
 H                 -3.33847500    0.43115700   -0.93113900
 H                 -2.38971200   -1.07628100   -0.76614500
 H                 -1.27007600   -0.04397000    1.01197300
 H                 -0.64501700    0.88774800   -0.38094400
 C                  0.94744300    2.08298800   -0.08738500
 H                  0.92241700    2.04929600    1.00800300
 H                  1.97718600    2.13918400   -0.44471600
 H                  0.39264600    2.95471700   -0.44502300
 F                  0.24168100   -1.38452200   -0.83464500

 1 2 1.0 7 2.0 19 1.0
 2 3 1.0 4 1.0 5 1.0
 3
 4
 5
 6 15 1.0
 7
 8 9 1.0 13 1.0
 9 10 1.0 11 1.0 12 1.0
 10
 11
 12
 13
 14
 15 16 1.0 17 1.0 18 1.0
 16
 17
 18
 19

