%nprocshared=8
%nprocl=1
# opt freq b3lyp/def2tzvp geom=connectivity

Title Card Required

0 1
 O                 -0.11001100   -0.23626000   -1.06888600
 O                  2.13102000    0.33957100   -0.11541900
 H                  0.86992700    0.03801800   -0.93926900
 H                  1.55421300    0.33366500    0.70322000
 C                 -0.86447700    0.41174200   -0.20301400
 C                 -0.92689000    1.91214000   -0.21121600
 H                  0.07905300    2.32961500   -0.27972500
 H                 -1.41178500    2.26860700    0.69817900
 H                 -1.50738000    2.22997200   -1.08630900
 O                 -2.01366400   -0.16800700    0.08444200
 C                  3.08276800   -0.71913300   -0.05362900
 H                  3.83051300   -0.51691700    0.72257900
 H                  2.59947000   -1.68365100    0.15386500
 H                  3.58437200   -0.76908500   -1.02371500
 C                 -2.05958700   -1.61263800    0.04743500
 H                 -3.03928200   -1.87119500    0.44879800
 H                 -1.95459800   -1.97080000   -0.97869600
 H                 -1.26488800   -2.01390000    0.67949600
 F                  0.13452700    0.24339700    1.35811400

 1 5 1.5
 2 4 1.0 11 1.0
 3
 4
 5 6 1.0 10 1.5
 6 7 1.0 8 1.0 9 1.0
 7
 8
 9
 10 15 1.0
 11 12 1.0 13 1.0 14 1.0
 12
 13
 14
 15 16 1.0 17 1.0 18 1.0
 16
 17
 18
 19

