%nprocshared=8
%nprocl=1
# opt freq b3lyp/def2tzvp geom=connectivity

Title Card Required

0 1
 O                 -0.20697400   -0.35142300   -1.07857300
 O                  1.98053700   -0.86016100   -0.02294800
 H                  0.78864600   -0.50864400   -0.87496500
 H                  1.44829500   -0.60272100    0.78395400
 C                 -0.76074800    0.45027400   -0.18866900
 C                 -0.42256800    1.91425500   -0.15894700
 H                  0.65893800    2.05096200   -0.20182200
 H                 -0.81275400    2.36930800    0.75213400
 H                 -0.87735000    2.39413900   -1.03430400
 O                 -2.03126900    0.20187100    0.07171100
 C                  3.17008400   -0.08825300   -0.12614600
 H                  3.88860300   -0.38319600    0.64791200
 H                  3.60697400   -0.28717100   -1.10837000
 H                  2.96852800    0.98825500   -0.03370400
 C                 -2.47088000   -1.17370800   -0.01479000
 H                 -3.49203100   -1.16380200    0.36596900
 H                 -2.44575500   -1.51641500   -1.05091300
 H                 -1.83085200   -1.79789100    0.61197800
 F                  0.11834200   -0.00894800    1.36799100

 1 5 1.5
 2 4 1.0 11 1.0
 3
 4
 5 6 1.0 10 1.5
 6 7 1.0 8 1.0 9 1.0
 7
 8
 9
 10 15 1.0
 11 12 1.0 13 1.0 14 1.0
 12
 13
 14
 15 16 1.0 17 1.0 18 1.0
 16
 17
 18
 19

