%nprocshared=8
%nprocl=1
# opt=(calcfc,ts,noeigentest) freq=noraman b3lyp/def2tzvp geom=connectivity

Title Card Required

0 1
 C                  1.14561600   -0.48509200   -0.05744100
 O                  2.02208300   -0.10101300   -0.78574100
 O                  0.38827300    0.68453300    0.65561600
 O                 -1.84847500    0.51627900   -0.37457200
 C                 -2.84373300   -0.31060000    0.28311400
 H                 -2.38613200   -1.19487300    0.73580300
 H                 -3.31255100    0.33098000    1.03790300
 H                 -3.57167400   -0.59443700   -0.48664900
 H                 -0.88598000    0.70306200    0.37967000
 H                 -1.21771700   -0.13947500   -1.06938300
 C                  1.05246700   -1.60341300    0.92799800
 H                  1.02821400   -2.57889100    0.41422300
 H                  1.94392200   -1.59375900    1.57627100
 H                  0.17130700   -1.53908800    1.57922300
 C                  0.89695600    2.00104300    0.29452700
 H                  0.26434500    2.71108200    0.83053700
 H                  1.93823100    2.04629300    0.63373100
 H                  0.85432700    2.13315500   -0.79307700
 F                 -0.09212900   -0.74378500   -1.05442900

 1 2 2.0 11 1.0
 2
 3 15 1.0
 4 5 1.0
 5 6 1.0 7 1.0 8 1.0
 6
 7
 8
 9
 10
 11 12 1.0 13 1.0 14 1.0
 12
 13
 14
 15 16 1.0 17 1.0 18 1.0
 16
 17
 18
 19

