%nprocshared=8
%nprocl=1
# freq b3lyp/def2tzvp scrf=(cpcm,solvent=methanol) geom=connectivity

ts611f sol meoh

0 1
 C                 -1.38773500   -0.18423800    0.02664400
 C                 -1.56861900   -1.33418300   -0.90246800
 H                 -2.00198300   -2.15280300   -0.33292900
 H                 -2.26363400   -1.02701200   -1.68718100
 H                 -0.63234100   -1.65478500   -1.34726500
 O                 -2.13110700    0.37674700    0.73885500
 O                 -0.26594800    0.79838400   -0.67792600
 O                  1.73380000   -0.56699600   -0.38663600
 C                  2.98731000   -0.09254600    0.09295000
 H                  3.48967000    0.43965300   -0.71508700
 H                  2.86661100    0.58118700    0.94654800
 H                  3.61119100   -0.93520700    0.39696300
 H                  1.12896200   -0.94422100    0.38299600
 H                  0.70418700    0.28693900   -0.64267200
 C                 -0.17407100    2.08132900   -0.02967900
 H                  0.11148400    1.96097700    1.01471400
 H                  0.56918700    2.66159800   -0.57348400
 H                 -1.14379700    2.56612000   -0.08896400
 F                 -0.03053400   -1.05218800    1.12526000

 1 2 1.0 6 2.0
 2 3 1.0 4 1.0 5 1.0
 3
 4
 5
 6
 7 15 1.0
 8 9 1.0
 9 10 1.0 11 1.0 12 1.0
 10
 11
 12
 13
 14
 15 16 1.0 17 1.0 18 1.0
 16
 17
 18
 19

