%chk=C:\Users\214584429\Dropbox\RCOF\TS-6.2.1-F\of621-631.chk
# opt=(calcfc,ts,noeigentest) freq=noraman b3lyp/def2tzvp geom=connectivity

Title Card Required

0 1
 C                 -1.05134700   -0.38824700    0.21092100
 C                 -1.71702800   -1.21983100   -0.85547700
 H                 -2.50379100   -1.85304200   -0.41753800
 H                 -2.17817100   -0.60358600   -1.64083600
 H                 -0.99350700   -1.88789700   -1.34239000
 O                 -0.24411200    0.66480000   -0.72022900
 O                 -0.17338100   -0.84723500    1.01498600
 O                  1.78323500   -0.74082400   -0.40588100
 C                  2.91673400   -0.11058000    0.23759700
 H                  3.43732500    0.44624000   -0.54869300
 H                  2.58668700    0.54520700    1.04930300
 H                  3.55342900   -0.91651100    0.62213400
 H                  1.10760000   -1.17378300    0.39425200
 H                  0.90394100    0.14791500   -0.73736400
 C                 -0.07399500    2.01826700   -0.22520200
 H                  0.67259200    2.48143400   -0.87681100
 H                 -1.04045900    2.52392000   -0.33571200
 H                  0.24650100    2.00781100    0.82165300
 F                 -1.90714200    0.43007900    0.85488400

 1 2 1.0 7 2.0 19 1.0
 2 3 1.0 4 1.0 5 1.0
 3
 4
 5
 6 15 1.0
 7
 8 9 1.0
 9 10 1.0 11 1.0 12 1.0
 10
 11
 12
 13
 14
 15 16 1.0 17 1.0 18 1.0
 16
 17
 18
 19

