%nprocshared=8
%nprocl=1
# opt=(calcfc,ts,noeigentest) freq=noraman b3lyp/def2tzvp geom=connectivity

Title Card Required

0 1
 O                  0.02030700   -0.06100700   -1.07584700
 O                 -2.07700500   -0.58102400   -0.01260300
 H                 -1.25268500   -0.45861100   -0.88438600
 H                 -1.29771000   -0.44784600    0.84863500
 C                  0.89400800   -0.40625900   -0.19419700
 C                  1.51118700   -1.77193800   -0.12895800
 H                  0.75253400   -2.56553700   -0.07894700
 H                  2.17070300   -1.88210800    0.74710200
 H                  2.12128800   -1.94809000   -1.02845300
 O                  1.80110900    0.53996300    0.21223600
 C                 -2.94986200    0.58090700   -0.03688700
 H                 -3.54510800    0.54253300    0.88204000
 H                 -2.36342400    1.50330400   -0.09715000
 H                 -3.58921600    0.45803800   -0.91867900
 C                  1.47103600    1.93619400   -0.01915100
 H                  2.45303800    2.41951900    0.01671400
 H                  0.99002200    2.06165900   -0.99518300
 H                  0.82439800    2.27550200    0.79450400
 F                 -0.08637200   -0.35280400    1.11096400

 1 5 1.5
 2 11 1.0
 3
 4
 5 6 1.0 10 1.0
 6 7 1.0 8 1.0 9 1.0
 7
 8
 9
 10 15 1.0
 11 12 1.0 13 1.0 14 1.0
 12
 13
 14
 15 16 1.0 17 1.0 18 1.0
 16
 17
 18
 19

