%nprocshared=8
%nprocl=1
# freq=readisotopes b3lyp/def2tzvp geom=connectivity

HAc 373.15k 1.0atm

0 1
 O                 -0.96371200   -0.93575900    0.00081900
 H                 -0.46785700   -1.76983100   -0.00223800
 C                 -0.11969500    0.13563100   -0.00245500
 C                  1.37144200   -0.16084500   -0.00044900
 H                  1.80432300    0.23908000    0.92231000
 H                  1.61951100   -1.22446200   -0.07434200
 H                  1.83375100    0.37114400   -0.83719300
 O                 -0.57381400    1.25267800    0.00029200

 1 2 1.0 3 1.0
 2
 3 4 1.0 8 2.0
 4 5 1.0 6 1.0 7 1.0
 5
 6
 7
 8

373.15 1.0
16
1
12
12
1
1
1
16



