%nprocshared=8
%nprocl=1
# freq=readisotopes b3lyp/def2tzvp geom=connectivity

ts612Ifreq def2tzvp 373.15k

0 1
 C                  0.76524300   -1.53225800    0.57938500
 O                  0.64344800   -2.59427000    0.07859700
 O                  1.91629900   -0.55635300   -0.28071200
 O                  1.28042300    1.96079400   -0.34996200
 C                  1.59565800    2.99106800    0.59375600
 H                  1.27855900    3.96605300    0.20750600
 H                  1.11081800    2.80843800    1.56094900
 H                  2.68036800    2.99105500    0.72235800
 H                  1.67772000    0.44019700   -0.23733200
 H                  0.30046000    1.79471700   -0.36882500
 C                  0.90105500   -1.08332400    2.00102000
 H                  0.94341500    0.00061000    2.08761100
 H                  0.03379200   -1.45471200    2.55118200
 H                  1.81781600   -1.53429100    2.40450900
 C                  2.04001400   -0.95086800   -1.67193500
 H                  2.45965400   -1.95565600   -1.68940300
 H                  1.05495100   -0.93037100   -2.14592300
 H                  2.71966100   -0.24053200   -2.14615800
 I                 -1.48321500    0.13368700   -0.14232500

 1 2 2.0 11 1.0
 2
 3 15 1.0
 4 5 1.0 10 1.0
 5 6 1.0 7 1.0 8 1.0
 6
 7
 8
 9
 10
 11 12 1.0 13 1.0 14 1.0
 12
 13
 14
 15 16 1.0 17 1.0 18 1.0
 16
 17
 18
 19

373.15 1.0
12
16
16
16
12
1
1
1
1
1
12
1
1
1
12
1
1
1
127







