%nprocshared=8
%nprocl=1
# opt freq b3lyp/def2tzvp geom=connectivity

int621I def2tzvp

0 1
 C                 -1.41587300   -0.94496100    1.34802400
 H                 -2.50198200   -1.12343900    1.41498200
 H                 -1.14021000   -0.20581200    2.11256700
 H                 -0.92128400   -1.89420300    1.62209700
 C                 -1.03748900   -0.52505300   -0.04286600
 O                 -1.78274200    0.49991500   -0.63987200
 O                 -1.18009200   -1.59437400   -0.90479600
 C                 -1.90096200    1.75803400    0.05864100
 H                 -2.42812700    2.38179300   -0.67539900
 H                 -2.49237700    1.62683900    0.96801700
 H                 -0.90014200    2.16468400    0.27112700
 H                 -1.22429800   -1.30163500   -1.85865200
 I                  1.15918900    0.10149700    0.00603400

 1 2 1.0 3 1.0 4 1.0 5 1.0
 2
 3
 4
 5 6 1.0 7 1.0
 6 8 1.0
 7 12 1.0
 8 9 1.0 10 1.0 11 1.0
 9
 10
 11
 12
 13




