%nprocshared=8
%nprocl=1
# freq=noraman b3lyp/def2tzvp geom=connectivity

pc613Ifreq-s31 def2tzvp

0 1
 C                  0.62044400   -0.68968800    1.32256000
 C                  0.04456600   -2.06077500    1.13985500
 H                  0.73972500   -2.70279300    0.59390100
 H                 -0.19217900   -2.47685500    2.12410500
 H                 -0.87966700   -1.95695700    0.55105900
 O                  0.59334200    0.01684100    2.27461400
 O                 -2.75163200   -1.01112200   -0.14908100
 O                 -1.83883300    1.64574500   -0.29549200
 C                 -1.97437200    2.56843300    0.79071100
 H                 -3.03205400    2.57299400    1.06340900
 H                 -1.37987300    2.25809100    1.65872800
 H                 -1.68142100    3.58104600    0.48599400
 H                 -0.90228400    1.58102100   -0.55035300
 H                 -2.51000700   -0.06166300   -0.20240800
 C                 -3.81996800   -1.27379800   -1.04930300
 H                 -3.52534400   -1.10863100   -2.09619800
 H                 -4.09703700   -2.32523900   -0.92739700
 H                 -4.70200900   -0.65518600   -0.82836700
 I                  1.60217200    0.09089500   -0.56105200

 1 2 1.0 6 2.0
 2 3 1.0 4 1.0 5 1.0
 3
 4
 5
 6
 7 14 1.0 15 1.0
 8 9 1.0 13 1.0
 9 10 1.0 11 1.0 12 1.0
 10
 11
 12
 13
 14
 15 16 1.0 17 1.0 18 1.0
 16
 17
 18
 19

