%nprocshared=8
%nprocl=1
# freq b3lyp/def2tzvp geom=connectivity

pc611Ifreq-s10 def2tzvp

0 1
 C                  1.10492200    1.32650400    0.20746700
 C                  0.96803600    1.63698600    1.67315900
 H                  1.91115200    1.37555000    2.16721800
 H                  0.76311900    2.70523500    1.78147600
 H                  0.16345500    1.05076700    2.11916900
 O                  1.27426700    2.07419300   -0.69929700
 O                 -1.70030200    1.64806400    0.21735000
 O                 -2.62209600   -0.99902900    0.59621800
 C                 -3.67110000   -1.81716400    0.07863200
 H                 -4.61003800   -1.33688600    0.36366800
 H                 -3.62558200   -1.89250400   -1.01612000
 H                 -3.64330300   -2.82422500    0.51424700
 H                 -1.75655600   -1.39142800    0.38872500
 H                 -2.19903800    0.81530100    0.35034000
 C                 -2.14686300    2.29438400   -0.97302000
 H                 -3.15925900    2.70278200   -0.84743500
 H                 -1.45425100    3.11631300   -1.16918000
 H                 -2.13530200    1.61223400   -1.83419400
 I                  1.25661700   -0.91251400   -0.18206600

 1 2 1.0 6 2.0
 2 3 1.0 4 1.0 5 1.0
 3
 4
 5
 6
 7 14 1.0 15 1.0
 8 9 1.0 13 1.0
 9 10 1.0 11 1.0 12 1.0
 10
 11
 12
 13
 14
 15 16 1.0 17 1.0 18 1.0
 16
 17
 18
 19

