%nprocshared=8
%nprocl=1
# freq b3lyp/def2tzvp geom=connectivity

pc614If freq-s9 def2tzvp

0 1
 C                 -0.87394800    1.06492200    0.91670900
 O                 -0.47705300    0.92021000    2.02636100
 O                  1.83015600    1.64301500   -0.08694900
 O                  2.53949200   -1.01062600    0.73388900
 C                  3.44937100   -1.99168200    0.23752800
 H                  3.30154200   -2.18045400   -0.83479200
 H                  4.45402100   -1.59126100    0.39226900
 H                  3.35812700   -2.93656700    0.78882200
 H                  2.24266800    0.81889200    0.24265400
 H                  1.62744100   -1.33979000    0.65460000
 C                 -1.20701200    2.34717100    0.20411700
 H                 -2.29804000    2.46268300    0.20055500
 H                 -0.74159000    3.17835900    0.74063000
 H                 -0.85858700    2.31272300   -0.82867000
 C                  2.39020700    1.97510800   -1.35098300
 H                  1.91437500    2.90413600   -1.67861900
 H                  3.47404700    2.14961000   -1.28462500
 H                  2.19984500    1.19623300   -2.10383000
 I                 -1.36540200   -0.75034900   -0.33433300

 1 2 2.0 11 1.0
 2
 3 9 1.0 15 1.0
 4 5 1.0 10 1.0
 5 6 1.0 7 1.0 8 1.0
 6
 7
 8
 9
 10
 11 12 1.0 13 1.0 14 1.0
 12
 13
 14
 15 16 1.0 17 1.0 18 1.0
 16
 17
 18
 19

