%nprocshared=8
%nprocl=1
# freq b3lyp/def2tzvp geom=connectivity

pc624freq def2tzvp

0 1
 C                  0.39322100    0.70636200    1.03015700
 O                 -0.35648900    0.08748000    1.71953500
 O                 -2.00927500    1.19905100   -1.01287100
 O                 -2.28962200   -1.43766900   -0.03761600
 C                 -3.38942500   -2.27243600    0.34136500
 H                 -3.91570000   -1.87232900    1.21767300
 H                 -4.07327800   -2.28976000   -0.50978100
 H                 -3.05394200   -3.29642800    0.54810200
 H                 -2.19636300    0.25370300   -0.87304000
 H                 -1.66363000   -1.37566700    0.69883800
 C                  0.53017900    2.19805800    0.93295600
 H                  1.58079300    2.49271700    0.98211400
 H                  0.12214600    2.49193700   -0.04090500
 H                 -0.05236000    2.66672300    1.73170400
 C                 -3.19922000    1.93334500   -0.73335700
 H                 -2.93712900    2.99441000   -0.77071500
 H                 -3.97912300    1.74107300   -1.48358000
 H                 -3.59398900    1.70183300    0.26607900
 I                  1.79239900   -0.37153000   -0.31218100

 1 2 2.0 11 1.0 19 1.0
 2
 3 9 1.0 15 1.0
 4 5 1.0 10 1.0
 5 6 1.0 7 1.0 8 1.0
 6
 7
 8
 9
 10
 11 12 1.0 13 1.0 14 1.0
 12
 13
 14
 15 16 1.0 17 1.0 18 1.0
 16
 17
 18
 19

