%nprocshared=8
%nprocl=1
# freq b3lyp/def2tzvp geom=connectivity

pc623freq def2tzvp

0 1
 C                 -0.33029400   -0.95509200    0.93887900
 C                 -0.34364600   -2.40164200    0.53764100
 H                 -1.36700000   -2.75612400    0.39117500
 H                  0.19873800   -2.46986000   -0.41231800
 H                  0.17212000   -2.99122100    1.30166600
 O                  2.15046100   -0.91387900   -0.94679500
 O                  0.31559700   -0.44719800    1.80423900
 O                  2.35759300    1.42225900    0.55006300
 C                  2.23800400    2.77482100    0.10157400
 H                  3.01428000    2.92526000   -0.65228900
 H                  1.25675500    2.96432500   -0.35245700
 H                  2.40359200    3.48090600    0.92567600
 H                  1.65539200    1.22967500    1.19361800
 H                  2.26882400   -0.01409500   -0.57139400
 C                  3.35197300   -1.64509300   -0.76598700
 H                  3.65512800   -1.69004500    0.29109900
 H                  3.17201200   -2.66555000   -1.12026500
 H                  4.18448900   -1.22349900   -1.34990700
 I                 -1.67358000    0.30344900   -0.29768500

 1 2 1.0 7 2.0 19 1.0
 2 3 1.0 4 1.0 5 1.0
 3
 4
 5
 6 14 1.0 15 1.0
 7
 8 9 1.0 13 1.0
 9 10 1.0 11 1.0 12 1.0
 10
 11
 12
 13
 14
 15 16 1.0 17 1.0 18 1.0
 16
 17
 18
 19

