%nprocshared=8
%nprocl=1
# freq b3lyp/def2tzvp geom=connectivity

pc622I freq-s30 Def2TZVP

0 1
 C                  0.33994500   -0.62418400    0.68424600
 C                 -0.09129800    0.18355700    1.87519400
 H                  0.75676900    0.62371600    2.40089000
 H                 -0.74879000    0.98230500    1.49596100
 H                 -0.68221600   -0.45504800    2.54020300
 O                 -2.63017600    1.54854800    0.36551000
 O                 -0.25218500   -1.54715900    0.20238700
 O                 -3.04901600   -1.01321600   -0.69728200
 H                 -2.17071400   -1.39647200   -0.52442700
 H                 -2.88597400    0.69609600   -0.05088600
 C                 -3.06936600    2.62702500   -0.44957300
 H                 -4.16712800    2.67891300   -0.50145400
 H                 -2.70133900    3.54991200    0.00830300
 H                 -2.66918800    2.55978500   -1.47171600
 C                 -4.05899700   -1.90296900   -0.21655300
 H                 -3.94809300   -2.09882000    0.85810200
 H                 -5.01913200   -1.41171900   -0.39042300
 H                 -4.04184700   -2.85327300   -0.76522300
 I                  2.20767800    0.06639000   -0.26271900

 1 2 1.0 7 2.0 19 1.0
 2 3 1.0 4 1.0 5 1.0
 3
 4
 5
 6 10 1.0 11 1.0
 7
 8 9 1.0 15 1.0
 9
 10
 11 12 1.0 13 1.0 14 1.0
 12
 13
 14
 15 16 1.0 17 1.0 18 1.0
 16
 17
 18
 19

