%nprocshared=8
%nprocl=1
# freq b3lyp/def2tzvp geom=connectivity

pc632I def2tzvp

0 1
 C                 -0.98364200    1.19940700    1.78756200
 H                 -1.13361500    0.32967000    2.42615700
 H                 -1.59713500    2.03592700    2.15684000
 H                  0.06614600    1.48967900    1.80723300
 C                 -1.42732900    0.90105800    0.38964800
 O                 -2.52153300    0.20473400    0.28859100
 O                 -1.05158700    1.58578100   -0.63722600
 C                 -2.99223800   -0.15964900   -1.03715600
 H                 -3.23999700    0.73706000   -1.60725600
 H                 -2.20180300   -0.73413400   -1.52761700
 H                 -3.87438700   -0.77145400   -0.85674300
 H                 -0.03753800    1.85205000   -0.63207800
 I                  0.71206700   -1.32651300    0.03101000
 H                  1.56668300    0.86164100   -0.71820800
 C                  2.39443800    2.57695700   -0.06917900
 H                  3.39146800    2.43979800   -0.50012600
 H                  2.11913500    3.63235700   -0.12804200
 H                  2.40314600    2.25219400    0.97852600
 O                  1.42949200    1.84370300   -0.83480100

 1 2 1.0 3 1.0 4 1.0 5 1.0
 2
 3
 4
 5 6 1.5 7 1.5
 6 8 1.0
 7
 8 9 1.0 10 1.0 11 1.0
 9
 10
 11
 12
 13
 14 19 1.0
 15 16 1.0 17 1.0 18 1.0 19 1.0
 16
 17
 18
 19

