%nprocshared=8
%nprocl=1
# freq b3lyp/def2tzvp geom=connectivity

pc631Ifreq def2tzvp

0 1
 C                  0.09039400   -1.35031200   -0.55029000
 C                 -1.11449200   -2.12411600   -1.01724600
 H                 -1.51449800   -1.65202400   -1.91453000
 H                 -0.78263100   -3.14379100   -1.26585300
 H                 -1.89665700   -2.17139600   -0.26064900
 O                  0.92821600   -1.02583100   -1.50980800
 O                  0.70566200   -1.67557400    0.59748800
 O                  2.43362600    0.92955400   -0.59768400
 C                  3.35607500    0.87203300    0.49652300
 H                  2.92398800    0.34466300    1.35564800
 H                  4.23287300    0.32743700    0.13938100
 H                  3.66019200    1.88139700    0.79693200
 H                  1.61924800    1.40016900   -0.31788900
 C                 -0.07479000   -2.06051000    1.74049600
 H                 -0.78333100   -1.26033400    1.98017600
 H                 -0.59622000   -3.00416400    1.55428500
 H                  0.64497800   -2.18862500    2.54903300
 I                 -1.04256500    0.98199400    0.08705100
 H                  1.66486300   -0.42676500   -1.16710700

 1 2 1.0 6 1.5 7 1.5
 2 3 1.0 4 1.0 5 1.0
 3
 4
 5
 6 19 1.0
 7 14 1.0
 8 9 1.0 13 1.0
 9 10 1.0 11 1.0 12 1.0
 10
 11
 12
 13
 14 15 1.0 16 1.0 17 1.0
 15
 16
 17
 18
 19

