%nprocshared=8
%nprocl=1
# freq=readisotopes b3lyp/def2tzvp scrf=(cpcm,solvent=methanol)
geom=connectivity

ts611I sol meoh 373

0 1
 C                  0.12491700   -1.79956300    0.40222600
 C                  0.22080100   -1.62659000    1.87555500
 H                 -0.78335200   -1.72184400    2.28249900
 H                  0.85287900   -2.43612500    2.25510500
 H                  0.63696600   -0.66471600    2.15083300
 O                 -0.29216400   -2.63021800   -0.29931900
 O                  1.63301800   -1.14875600   -0.20549900
 O                  1.82969100    1.25762400    0.67508600
 C                  2.66930400    2.30753400    0.18732500
 H                  3.70111900    1.97982800    0.30185300
 H                  2.47066700    2.52116500   -0.86565100
 H                  2.51948800    3.21548200    0.77391400
 H                  0.87852500    1.48047600    0.53334500
 H                  1.76349000   -0.18585600    0.11301900
 C                  1.73088900   -1.21658000   -1.64229800
 H                  2.74975100   -0.94981200   -1.91808100
 H                  1.52269300   -2.24088300   -1.93610100
 H                  1.00554700   -0.54038700   -2.09462100
 I                 -1.34259600    0.63631400   -0.14896400

 1 2 1.0 6 2.0
 2 3 1.0 4 1.0 5 1.0
 3
 4
 5
 6
 7 15 1.0
 8 9 1.0 13 1.0
 9 10 1.0 11 1.0 12 1.0
 10
 11
 12
 13
 14
 15 16 1.0 17 1.0 18 1.0
 16
 17
 18
 19

373.15 1.0
12
12
1
1
1
16
16
16
12
1
1
1
1
1
12
1
1
1
127



