%nprocshared=8
%nprocl=1
# opt=(calcfc,ts,noeigentest) freq=noraman b3lyp/def2tzvp geom=connectivity

ts611I def2tzvp

0 1
 C                  0.18285183   -0.10660639   -0.05090179
 C                  0.52193391   -0.35054681    1.23284913
 H                  0.58736906   -1.26848586    1.79809788
 H                  1.42413258    0.00403719    1.26760154
 H                 -0.03051800    0.30250066    1.87567564
 O                  0.79993733   -1.17560474   -0.57248400
 O                  0.55730200    1.68774425   -0.03406252
 O                 -1.48101873    2.77854541   -0.39586186
 C                 -2.12687991    3.53534341   -1.29348099
 H                 -1.70355171    4.51083986   -1.27820771
 H                 -2.00857148    3.09360000   -2.25363683
 H                 -3.15532220    3.57201248   -1.02516182
 H                 -2.43011914    1.73125913   -0.17837652
 H                 -0.24691005    2.77816379    0.08353087
 C                  1.42543074    2.18138279   -0.95724911
 H                  1.60995765    3.21595109   -0.75595757
 H                  2.34613911    1.63853323   -0.90714472
 H                  1.00320823    2.07804126   -1.93497538
 I                 -2.30368307    0.02471064   -0.05097810

 1 2 1.0 6 2.0 19 1.0
 2 3 1.0 4 1.0 5 1.0
 3
 4
 5
 6
 7 14 1.0 15 1.0
 8 9 1.0 13 1.0
 9 10 1.0 11 1.0 12 1.0
 10
 11
 12
 13
 14
 15 16 1.0 17 1.0 18 1.0
 16
 17
 18
 19













