%nprocshared=8
%nprocl=1
# freq=noraman b3lyp/def2tzvp geom=connectivity

ts622Ifreq def2tzvp

0 1
 C                  0.37813500    0.75335000   -0.70152800
 C                 -0.18308000    2.10158400   -1.11166500
 H                 -0.82160900    1.94851200   -1.98427400
 H                 -0.77262900    2.57996500   -0.32888000
 H                  0.65990400    2.74725500   -1.39289700
 O                  1.22955000    0.92832000    0.59551700
 O                  1.03137600    0.06659900   -1.52181300
 O                  2.47103900   -1.07411800    0.15490700
 H                  1.96121000   -0.94178100   -0.71881100
 H                  1.99624800   -0.14402000    0.58681900
 C                  0.67333300    1.36442800    1.84836400
 H                  1.51711400    1.70916600    2.45346000
 H                 -0.01521400    2.19418600    1.67944800
 H                  0.14496800    0.54562700    2.34274600
 C                  3.90384700   -0.95639000   -0.04856200
 H                  4.13647600   -0.02969900   -0.58142200
 H                  4.36944300   -0.96344900    0.93756800
 H                  4.23262700   -1.82375000   -0.62260300
 I                 -1.58297500   -0.50502400    0.07321300

 1 2 1.0 7 2.0
 2 3 1.0 4 1.0 5 1.0
 3
 4
 5
 6 11 1.0
 7
 8 15 1.0
 9
 10
 11 12 1.0 13 1.0 14 1.0
 12
 13
 14
 15 16 1.0 17 1.0 18 1.0
 16
 17
 18
 19











