%nprocshared=8
%nprocl=1
# opt freq b3lyp/def2tzvp geom=connectivity

pc41Br def2tzvp

0 1
 C                  0.93492300    0.84107300    0.29751500
 C                  0.93355100    1.93296600   -0.72158900
 H                  0.37532000    2.77045800   -0.29001400
 H                  1.97359000    2.23064300   -0.89931900
 H                  0.45552300    1.61860400   -1.64589000
 O                  1.48665600    0.67492900    1.31828000
 C                  2.05971100   -1.75018000   -0.11718600
 H                  3.05632500   -1.40555000    0.16209900
 H                  2.13912400   -2.66100900   -0.71901100
 H                  1.46624300   -1.94220700    0.78291800
 O                  1.46314500   -0.71287000   -0.91110700
 H                  0.51770900   -0.94319700   -1.05870600
 Br                -1.32264200   -0.14388000    0.04653400

 1 2 1.0 6 2.0
 2 3 1.0 4 1.0 5 1.0
 3
 4
 5
 6
 7 8 1.0 9 1.0 10 1.0 11 1.0
 8
 9
 10
 11 12 1.0
 12
 13





