%nprocshared=8
%nprocl=1
# freq b3lyp/def2tzvp geom=connectivity

pc614Brfreq-s10 def2tzvp

0 1
 C                 -1.39884100    0.48782300    0.77799200
 O                 -1.10511900    0.29240400    1.90532200
 O                  1.21902300    1.85429000    0.15748500
 O                  2.23166300   -0.79734500    0.67366400
 C                  3.31115900   -1.59294900    0.18476300
 H                  3.29653600   -1.67149200   -0.91108100
 H                  4.23296100   -1.09397000    0.49312000
 H                  3.29445200   -2.60013800    0.62132700
 H                  1.71018100    1.04319400    0.39846500
 H                  1.38687800   -1.23613600    0.47318800
 C                 -1.98763400    1.70200400    0.12663700
 H                 -3.05108200    1.50901800   -0.05927400
 H                 -1.87194500    2.55459300    0.80070600
 H                 -1.49440800    1.89628300   -0.82568700
 C                  1.80165600    2.40771300   -1.01302200
 H                  1.22743400    3.30364000   -1.26889700
 H                  2.84801700    2.70703900   -0.85048500
 H                  1.76199900    1.71196000   -1.86525900
 Br                -1.21324600   -1.05561000   -0.55303200

 1 2 2.0 11 1.0
 2
 3 9 1.0 15 1.0
 4 5 1.0 10 1.0
 5 6 1.0 7 1.0 8 1.0
 6
 7
 8
 9
 10
 11 12 1.0 13 1.0 14 1.0
 12
 13
 14
 15 16 1.0 17 1.0 18 1.0
 16
 17
 18
 19

