%nprocshared=8
%nprocl=1
# opt freq b3lyp/def2tzvp geom=connectivity

Title Card Required

0 1
 C                 -0.68898300    0.82973300    0.88894900
 C                 -2.10596200    1.24486400    0.65127000
 H                 -2.72359100    0.65223200    1.33327600
 H                 -2.19788900    2.30917800    0.89592900
 H                 -2.42458400    1.04745300   -0.36946100
 O                  0.03634400    0.98661900    1.80467300
 O                  0.22360800    1.76758600   -0.56337000
 O                  2.27043300    0.11356900   -0.56344100
 C                  3.18706500    0.09842600    0.53998600
 H                  3.79032200    1.00557600    0.46088500
 H                  2.65419300    0.09614800    1.49725700
 H                  3.84557600   -0.77563200    0.47628000
 H                  1.66169600   -0.65280400   -0.48545500
 H                  1.08993200    1.25185300   -0.55759800
 C                 -0.31160200    1.75872300   -1.89215300
 H                 -0.69279900    0.76443900   -2.15078900
 H                 -1.11451100    2.49837400   -1.92916300
 H                  0.47298400    2.04644300   -2.59950200
 Br                -0.58086800   -1.30979100   -0.12189300

 1 2 1.0 6 2.0
 2 3 1.0 4 1.0 5 1.0
 3
 4
 5
 6
 7 14 1.0 15 1.0
 8 9 1.0 13 1.0
 9 10 1.0 11 1.0 12 1.0
 10
 11
 12
 13
 14
 15 16 1.0 17 1.0 18 1.0
 16
 17
 18
 19

