%nprocshared=8
%nprocl=1
# freq b3lyp/def2tzvp geom=connectivity

pc621Brfreq-s21 def2tzvp

0 1
 C                  0.97929300   -0.02398200    1.03562200
 C                  1.31206600    1.32435000    1.59888000
 H                  2.33046800    1.62876200    1.35418800
 H                  0.59938000    2.02209400    1.13797200
 H                  1.14655500    1.31144200    2.68009500
 O                 -1.58755300    1.64213500    0.10694700
 O                  0.26842100   -0.85505700    1.51761400
 O                 -2.47519900   -1.03471300    0.59379900
 C                 -2.91739400   -2.00114400   -0.36123600
 H                 -3.85017100   -1.62070700   -0.78422500
 H                 -2.18533600   -2.13577400   -1.16864400
 H                 -3.11610900   -2.96942800    0.11620500
 H                 -1.63764100   -1.33413900    0.98876900
 H                 -2.01040800    0.76616200    0.23464900
 C                 -2.20470300    2.29207000   -0.99923500
 H                 -3.26356400    2.51416100   -0.80172200
 H                 -1.67563900    3.23639400   -1.15644700
 H                 -2.13001100    1.69390800   -1.91916000
 Br                 1.80375900   -0.36227300   -0.74493600

 1 2 1.0 7 2.0 19 1.0
 2 3 1.0 4 1.0 5 1.0
 3
 4
 5
 6 14 1.0 15 1.0
 7
 8 9 1.0 13 1.0
 9 10 1.0 11 1.0 12 1.0
 10
 11
 12
 13
 14
 15 16 1.0 17 1.0 18 1.0
 16
 17
 18
 19

