%nprocshared=8
%nprocl=1
# freq b3lyp/def2tzvp geom=connectivity

pc632Br freq def2tzvp

0 1
 O                  0.12555000   -1.48262700   -0.53788900
 O                 -2.35781800   -0.53726900   -0.76852100
 H                 -0.85673200   -1.30801100   -0.53746500
 H                 -1.97607300    0.35790300   -0.65169200
 C                  0.77120600   -0.75803900    0.38627600
 C                  0.37407500   -0.91669700    1.83503200
 H                 -0.69887900   -0.76154300    1.95906000
 H                  0.91597500   -0.20153900    2.45456000
 H                  0.62996300   -1.93918800    2.14298400
 O                  2.09962900   -0.77846100    0.24304300
 C                 -3.59105500   -0.64928500   -0.05417500
 H                 -4.33674200    0.04594400   -0.45786200
 H                 -3.94623200   -1.67243900   -0.19534900
 H                 -3.45810300   -0.45743300    1.01877200
 Br                 0.15210700    1.41024500    0.01601400
 C                  2.63418400   -0.78954100   -1.09482400
 H                  3.71543700   -0.73723800   -0.96660200
 H                  2.34933400   -1.70514600   -1.61700700
 H                  2.26895800    0.08832600   -1.63679900

 1 3 1.0 5 1.5
 2 4 1.0 11 1.0
 3
 4
 5 6 1.0 10 1.5
 6 7 1.0 8 1.0 9 1.0
 7
 8
 9
 10 16 1.0
 11 12 1.0 13 1.0 14 1.0
 12
 13
 14
 15
 16 17 1.0 18 1.0 19 1.0
 17
 18
 19

