%nprocshared=8
%nprocl=1
# opt=(calcfc,ts,noeigentest) freq=noraman b3lyp/def2tzvp geom=connectivity

ts42Br =def2tzvp

0 1
 C                 -0.56867300   -0.96068200    0.41466600
 C                 -0.26092600   -1.51973400   -0.89351900
 H                 -0.66765300   -0.96627900   -1.75455500
 H                  0.82804988   -1.49498749   -1.04687851
 H                 -0.57185900   -2.57396700   -0.97381400
 O                 -0.41701200   -1.17928300    1.55937100
 O                 -2.11974200   -0.17556600    0.40732600
 H                 -1.79440900    0.87421700    0.23499000
 Br                 0.14366000    1.35654700   -0.01036500
 C                 -3.12263900   -0.56195900   -0.56438100
 H                 -4.02494300    0.01473500   -0.32409000
 H                 -2.78089800   -0.35475300   -1.58262700
 H                 -3.29981200   -1.63089700   -0.40410100

 1 2 1.0 6 2.0
 2 3 1.0 5 1.0 4 1.0
 3
 4
 5
 6
 7 10 1.0
 8
 9
 10 11 1.0 12 1.0 13 1.0
 11
 12
 13







