%nprocshared=8
%nprocl=1
# freq b3lyp/def2tzvp scrf=(cpcm,solvent=methanol) geom=connectivity

ts611br sol meoh

0 1
 C                  1.41607100    0.77116000    0.40403600
 C                  1.27716100    0.58613700    1.87231800
 H                  1.93814400   -0.22684500    2.16356800
 H                  1.60268200    1.51642300    2.34800500
 H                  0.26013700    0.35187400    2.16384900
 O                  2.31507300    0.96991600   -0.30993400
 O                  0.01281100    1.66685900   -0.06187700
 O                 -1.99021400    0.27552800    0.70379000
 C                 -3.32811300    0.29652600    0.20289800
 H                 -3.74566500    1.27832600    0.42035900
 H                 -3.35428500    0.12187600   -0.87558700
 H                 -3.93144300   -0.46247400    0.70414900
 H                 -1.53497400   -0.56833700    0.45087100
 H                 -0.83769000    1.16588900    0.22418100
 C                 -0.02776000    1.93587800   -1.47927800
 H                  0.90930100    2.41262900   -1.74946000
 H                 -0.14785200    1.00250300   -2.02863900
 H                 -0.85869500    2.61531800   -1.66050400
 Br                 0.31356700   -1.54410900   -0.30904200

 1 2 1.0 6 2.0
 2 3 1.0 4 1.0 5 1.0
 3
 4
 5
 6
 7 15 1.0
 8 9 1.0 13 1.0
 9 10 1.0 11 1.0 12 1.0
 10
 11
 12
 13
 14
 15 16 1.0 17 1.0 18 1.0
 16
 17
 18
 19

