%nprocshared=8
%nprocl=1
# opt=(calcfc,ts,noeigentest) freq=noraman b3lyp/def2tzvp geom=connectivity

ts632Br def2tzvp

0 1
 O                 -0.43267500    1.55214500   -0.53614800
 O                  1.88040900    0.92165200   -0.87865500
 H                  0.66897000    1.41925800   -0.62063300
 H                  1.64134700   -0.04816600   -0.70302700
 C                 -1.02973400    0.93126700    0.41273200
 C                 -0.61931900    1.01169600    1.84989400
 H                  0.46668000    1.02327100    1.93811100
 H                 -1.02381700    0.16729300    2.40685200
 H                 -1.02147400    1.95104800    2.25799400
 O                 -2.24586200    0.50421100    0.21918200
 C                  3.00328700    1.32109800   -0.07528600
 H                  3.91487000    0.87831800   -0.48640300
 H                  3.07240700    2.40980600   -0.12734600
 H                  2.87597500    0.99967300    0.96461600
 Br                 0.34927700   -1.56881300    0.05948400
 C                 -2.69148100    0.31820800   -1.15025100
 H                 -3.69759000   -0.08811600   -1.05963200
 H                 -2.69585100    1.27305100   -1.67817500
 H                 -2.01770600   -0.39466200   -1.63187800

 1 5 2.0
 2 4 1.0 11 1.0
 3
 4
 5 6 1.0 10 1.5
 6 7 1.0 8 1.0 9 1.0
 7
 8
 9
 10 16 1.0
 11 12 1.0 13 1.0 14 1.0
 12
 13
 14
 15
 16 17 1.0 18 1.0 19 1.0
 17
 18
 19







