%nprocshared=8
%nprocl=1
# freq b3lyp/def2tzvp geom=connectivity

ts632Br def2tzvp

0 1
 O                  0.46755300   -1.49675200   -0.62776600
 O                 -1.91758300   -0.92093800   -0.85359800
 H                 -0.60022000   -1.41686200   -0.64213200
 H                 -1.69146200    0.04407000   -0.67091500
 C                  1.03571400   -0.94966200    0.38618500
 C                  0.54961000   -1.10235800    1.79260000
 H                 -0.53897300   -1.08353700    1.82671100
 H                  0.94785700   -0.30514500    2.41926800
 H                  0.90585900   -2.07522800    2.16360000
 O                  2.26862400   -0.55351800    0.26387800
 C                 -3.06499700   -1.32286700   -0.09486900
 H                 -3.95888500   -0.83328100   -0.49422600
 H                 -3.16724300   -2.40492800   -0.20526900
 H                 -2.95331000   -1.06491900    0.96541900
 Br                -0.34401900    1.59204900    0.06916500
 C                  2.78292200   -0.30722900   -1.07328000
 H                  3.78924500    0.07629000   -0.91372500
 H                  2.79822100   -1.23568000   -1.64632700
 H                  2.14133200    0.43985200   -1.54711800

 1 5 2.0
 2 4 1.0 11 1.0
 3
 4
 5 6 1.0 10 1.5
 6 7 1.0 8 1.0 9 1.0
 7
 8
 9
 10 16 1.0
 11 12 1.0 13 1.0 14 1.0
 12
 13
 14
 15
 16 17 1.0 18 1.0 19 1.0
 17
 18
 19

