%chk=C:\Users\214584429\Google Drive\214584429 MONSURAT\Silva-2014remix\MEOHAC-H30all.chk
# opt freq pm6 geom=connectivity

Title Card Required

1 1
 C                  0.12063100    2.16829600   -0.04355800
 H                 -0.97403800    2.14144500    0.14866300
 H                  0.27548900    2.90722400   -0.85327500
 H                  0.59570400    2.58326800    0.86470000
 C                  0.67061600    0.84354400   -0.39177400
 O                  1.84405500    0.47438600   -0.26981200
 O                 -0.25780700    0.07924100   -1.01673800
 C                  0.04229400   -1.29740600   -1.38236200
 H                 -0.86814400   -1.60665300   -1.91721300
 H                  0.90792200   -1.32822100   -2.04817000
 H                  0.18079300   -1.87722000   -0.46382500
 O                  3.58041300   -0.77175200    0.54713000
 H                  3.96561000   -1.33925900    1.21881300
 H                  2.67731800   -0.44753400    0.57714000
 H                  4.06592200   -0.58374100   -0.24750100
 C                 -3.65065400   -0.63748200    0.27724400
 H                 -4.23871300   -0.30443400    1.14432900
 H                 -3.37264500   -1.69001600    0.37470500
 H                 -4.21137500   -0.45497800   -0.64580800
 O                 -2.47672600    0.19235100    0.31373800
 H                 -1.92545300    0.05643600   -0.49026700
 O                 -0.08539100   -0.38726800    1.43088100
 H                 -1.07411600   -0.24330900    1.37342300
 H                  0.06204000   -0.97038100    2.16540600

 1 2 1.0 3 1.0 4 1.0 5 1.0
 2
 3
 4
 5 6 2.0 7 1.0
 6
 7 8 1.0
 8 9 1.0 10 1.0 11 1.0
 9
 10
 11
 12 13 1.0 14 1.0 15 1.0
 13
 14
 15
 16 17 1.0 18 1.0 19 1.0 20 1.0
 17
 18
 19
 20 21 1.0
 21
 22 23 1.0 24 1.0
 23
 24

