%chk=C:\Users\214584429\Google Drive\214584429 MONSURAT\Silva-2014remix\meohac-h30f.chk
# freq=noraman x3lyp/6-31+g(d) geom=connectivity

Title Card Required

1 1
 C                 -0.07139900    1.84625700    0.01492000
 H                  0.69902100    2.54121900   -0.39325800
 H                 -0.24432600    2.20881200    1.05409200
 H                 -1.00248100    2.04770500   -0.54602400
 C                  0.35359500    0.43983200   -0.01299800
 O                 -0.41035200   -0.59276900   -0.02499100
 O                  1.65335900    0.24669100   -0.01015800
 C                  2.18626000   -1.12977000    0.00851700
 H                  3.20299200   -0.97199500   -0.38881400
 H                  2.20562300   -1.46244200    1.05352400
 H                  1.59498600   -1.79570400   -0.62845000
 O                 -2.90852200   -0.52373400    0.05322300
 H                 -3.06393800   -1.35008200    0.59165700
 H                 -3.28866800   -0.74285400   -0.83859100
 H                 -1.58982400   -0.45408100   -0.11136400

 1 2 1.0 3 1.0 4 1.0 5 1.0
 2
 3
 4
 5 6 2.0 7 1.5
 6
 7 8 1.0
 8 9 1.0 10 1.0 11 1.0
 9
 10
 11
 12 13 1.0 14 1.0
 13
 14
 15

