%chk=C:\Users\214584429\Desktop\Test 2\meoh.chk
# opt freq x3lyp/6-31+g(d) geom=connectivity

meoh opt

0 1
 C                 -1.08806227   -0.17006802    0.02849193
 H                 -0.73140785   -1.17887803    0.02849193
 H                 -0.73138943    0.33433017   -0.84515957
 H                 -2.15806227   -0.17005484    0.02849193
 O                 -0.61138736    0.50403423    1.19608226
 H                 -0.93114605    1.40921609    1.19649840

 1 2 1.0 3 1.0 4 1.0 5 1.0
 2
 3
 4
 5 6 1.0
 6

