%chk=C:\Users\214584429\Desktop\Test 2\meohsp-x3lyp-solv.chk
# x3lyp/6-31+g(d) scrf=(solvent=methanol,smd) geom=connectivity

meoh opt

0 1
 C                  0.66831300   -0.02087900    0.00000000
 H                  1.08065500    0.99069700   -0.00000200
 H                  1.02805800   -0.54662100   -0.89579000
 H                  1.02805900   -0.54661800    0.89579200
 O                 -0.74884400    0.12294700    0.00000000
 H                 -1.15589300   -0.75576200    0.00000000

 1 2 1.0 3 1.0 4 1.0 5 1.0
 2
 3
 4
 5 6 1.0
 6

