%chk=C:\Users\214584429\Dropbox\Dropbox content\New folder\meohh.chk
# opt freq x3lyp/6-31+g(d) geom=connectivity

Title Card Required

1 1
 O                 -1.23441399    0.38650054   -0.00505957
 H                 -1.71441399    1.20863433   -0.12873669
 C                  0.19558601    0.38650054   -0.00505957
 H                  0.55225236   -0.62230525   -0.00505944
 H                  0.55225236    0.89090354   -0.87871094
 H                  0.55225287    0.89090334    0.86859171
 H                 -1.71441399   -0.43563325    0.11861755

 1 2 1.0 3 1.0 7 1.0
 2
 3 4 1.0 5 1.0 6 1.0
 4
 5
 6
 7

