%nprocshared=8
%nprocl=1
# opt=(calcfc,ts,noeigentest,maxcycle=50) m062x/def2tzvp geom=connectivity

ts611oh hcl

0 1
 H                 -1.77628700   -0.54391200   -0.95038900
 C                 -0.75648200    2.08301300    0.13270300
 H                 -0.36517700    2.63330600    1.00167400
 H                 -0.78333500    2.78225800   -0.71475300
 H                 -1.79581400    1.78920500    0.35331500
 C                  0.07910600    0.87942500   -0.18369400
 O                 -0.24332300   -0.06585400   -0.95967500
 O                  2.69451100   -0.51633700    0.24543200
 H                  2.42971100    0.48927300   -0.29556500
 C                 -0.36035900   -0.62094900    1.75566800
 H                 -0.54427600   -1.45500200    1.06782200
 H                  0.11842500   -0.94128900    2.68506500
 H                 -1.29584100   -0.08592300    1.95967000
 O                  0.57785600    0.32054100    1.16492500
 H                  1.73965100   -0.38080600    0.93781800
 O                  1.44581600    1.40280000   -0.64998000
 H                  1.47158400    1.30809000   -1.63418200
 Cl                -2.96082800   -0.79336500   -0.37207700
 C                  2.41279300   -1.61338900   -0.67885700
 H                  3.18695100   -1.57322900   -1.45051000
 H                  2.49917400   -2.53183700   -0.08955100
 H                  1.40009000   -1.50073500   -1.10564800

 1 18 1.0
 2 3 1.0 4 1.0 5 1.0 6 1.0
 3
 4
 5
 6 7 2.0
 7
 8 19 1.0
 9
 10 11 1.0 12 1.0 13 1.0 14 1.0
 11
 12
 13
 14
 15
 16 17 1.0
 17
 18
 19 20 1.0 21 1.0 22 1.0
 20
 21
 22

