# freq=noraman x3lyp/6-31+g(d) geom=connectivity

tsb-4 s9

1 1
 C                  1.78814100    1.83305600    0.00342600
 H                  2.16950600    1.81283900   -1.02187500
 H                  2.57614500    1.58998300    0.71789500
 H                  1.37532100    2.81718200    0.22127400
 C                  1.19157000   -0.92193300   -1.39353800
 H                  0.36279600   -0.62109900   -2.03929800
 H                  1.27539700   -2.01247900   -1.41869200
 H                  2.11445900   -0.48398300   -1.78349800
 C                  0.95581200   -0.43259100    0.02141100
 O                  1.89463300   -0.81055900    0.94853000
 H                  2.40109700   -1.58647700    0.65417200
 O                 -2.16238400    0.34416000   -0.28719600
 H                 -1.88894200    1.27055700   -0.15323500
 O                  0.67598500    0.91615000    0.15131200
 H                 -1.26779600   -0.39748300    0.13208200
 O                 -0.34505500   -1.06040200    0.47397500
 H                 -0.29666500   -1.11228000    1.45058800
 C                 -3.55248200    0.10435800    0.10361000
 H                 -3.74814400   -0.94353800   -0.11958800
 H                 -3.68767700    0.31221700    1.16700100
 H                 -4.18918300    0.74243300   -0.50925200

 1 2 1.0 3 1.0 4 1.0 14 1.0
 2
 3
 4
 5 6 1.0 7 1.0 8 1.0 9 1.0
 6
 7
 8
 9 10 1.0 14 1.0 16 1.0
 10 11 1.0
 11
 12 13 1.0 18 1.0
 13
 14
 15
 16 17 1.0
 17
 18 19 1.0 20 1.0 21 1.0
 19
 20
 21

