%nprocshared=8
%nprocl=1
# freq=noraman x3lyp/6-31+g(d) scrf=(solvent=methanol,smd)
geom=connectivity

tsb-3freq

1 1
 C                 -2.56589300    0.22364400    0.09052100
 H                 -2.91132600    0.63167400   -0.87980600
 H                 -2.62415100    1.00726200    0.84503300
 H                 -3.23917600   -0.58507100    0.38423100
 C                 -1.18532700   -0.34404300   -0.02550700
 O                 -0.23214200    0.70513000   -0.58199700
 O                 -0.25007800   -0.73543400    1.34860900
 H                 -0.69955400   -1.46494900    1.86936300
 O                 -1.14139100   -1.37618800   -0.91997600
 H                 -0.38841100   -1.94984900   -0.69796600
 C                 -0.14519000    2.00638500    0.08851500
 H                  0.71118800    2.50826000   -0.36031400
 H                 -1.05875300    2.55520000   -0.12642100
 H                 -0.00110200    1.84910400    1.15970300
 H                  0.73546100    0.24486200   -0.55833700
 C                  3.17034700    0.01096900   -0.02708900
 H                  3.40881800    0.58649700   -0.92250200
 H                  3.89546200   -0.79812700    0.09854400
 H                  3.17928300    0.66246100    0.85209600
 O                  1.85645300   -0.55681800   -0.22908400
 H                  1.48589700   -0.92257800    0.63732000

 1 2 1.0 3 1.0 4 1.0 5 1.0
 2
 3
 4
 5 9 1.0
 6 11 1.0
 7 8 1.0
 8
 9 10 1.0
 10
 11 12 1.0 13 1.0 14 1.0
 12
 13
 14
 15
 16 17 1.0 18 1.0 19 1.0 20 1.0
 17
 18
 19
 20 21 1.0
 21

