# freq x3lyp/6-31+g(d) geom=connectivity

Title Card Required

1 1
 C                 -2.12870100   -0.63314800   -1.02985700
 H                 -1.62293100   -0.86903400   -1.96779500
 H                 -2.71343400    0.28208800   -1.15692100
 H                 -2.79947700   -1.45995700   -0.77728000
 C                 -1.11211300   -0.49508500    0.07388800
 O                 -0.15015300    0.71532300   -0.40081500
 O                 -1.55435200   -0.14800600    1.31303400
 H                 -2.50187900    0.06885300    1.32078100
 O                 -0.25238000   -1.53820700    0.12476600
 H                  0.05788500   -1.67029500    1.03980200
 C                 -0.56208600    2.09086700   -0.14812500
 H                  0.20442300    2.72832900   -0.59003100
 H                 -1.50815200    2.25374900   -0.66351600
 H                 -0.65766800    2.26640700    0.92461400
 H                  0.82386200    0.54703000   -0.06758200
 C                  3.12969200   -0.51447900   -0.38935200
 H                  2.51660900   -1.23050400   -0.93597600
 H                  3.83042800   -1.04527000    0.25860600
 H                  3.66293200    0.13609900   -1.08669700
 O                  2.21255700    0.26586300    0.43028900
 H                  2.70127100    0.94379300    0.92447800

 1 2 1.0 3 1.0 4 1.0 5 1.0
 2
 3
 4
 5 7 1.0 9 1.0
 6 11 1.0
 7 8 1.0
 8
 9 10 1.0
 10
 11 12 1.0 13 1.0 14 1.0
 12
 13
 14
 15
 16 17 1.0 18 1.0 19 1.0 20 1.0
 17
 18
 19
 20 21 1.0
 21

