%nprocshared=8
%nprocl=1
# freq=noraman x3lyp/6-31+g(d) scrf=(solvent=methanol,smd)
geom=connectivity

tsb-3freq

1 1
 C                 -2.48426300    0.42544900    0.25554200
 H                 -2.84261400    0.95702000   -0.64734000
 H                 -2.37571600    1.13997500    1.07235500
 H                 -3.23612700   -0.31373300    0.54356700
 C                 -1.21007000   -0.30286800   -0.03216500
 O                 -0.16284500    0.67168100   -0.56017400
 O                 -0.34226700   -0.99363100    1.25980500
 H                 -0.89642700   -1.73389900    1.64298800
 O                 -1.38638500   -1.22382500   -1.02964700
 H                 -0.63999600   -1.84756400   -1.03280400
 C                 -0.01358700    1.98057300    0.09249100
 H                  0.88646000    2.41776000   -0.33868000
 H                 -0.88584800    2.57992900   -0.15926700
 H                  0.09224600    1.83946000    1.17082800
 H                  0.78246200    0.16191200   -0.51918900
 C                  3.16605500    0.03866900    0.05579800
 H                  3.45793500    0.60998600   -0.82709700
 H                  3.94029100   -0.69691000    0.29366800
 H                  3.01337500    0.71014800    0.90670000
 O                  1.93779900   -0.64882200   -0.27743400
 H                  1.58474000   -1.11824800    0.52387800

 1 2 1.0 3 1.0 4 1.0 5 1.0
 2
 3
 4
 5 9 1.0
 6 11 1.0
 7 8 1.0
 8
 9 10 1.0
 10
 11 12 1.0 13 1.0 14 1.0
 12
 13
 14
 15
 16 17 1.0 18 1.0 19 1.0 20 1.0
 17
 18
 19
 20 21 1.0
 21

