%nprocshared=5
%nprocl=1
# opt=(calcfc,ts,noeigentest) freq=noraman x3lyp/6-31+g(d)
geom=connectivity

Title Card Required

1 1
 C                 -3.68759448    1.43451309    0.03766198
 H                 -4.20423244    0.69088183   -0.53242378
 H                 -2.98499359    1.94114231   -0.59049311
 H                 -4.39240903    2.13986492    0.42575379
 C                 -1.71980244   -1.97918042    0.95819768
 H                 -1.77293736   -1.97379389    2.02686398
 H                 -0.92610662   -2.62423957    0.64380044
 H                 -2.64665352   -2.33232721    0.55678215
 C                 -1.45168389   -0.55026278    0.45035241
 O                 -1.38400783   -0.57671597   -0.97780030
 H                 -2.21664451   -0.89773614   -1.33172433
 O                 -1.06836554    2.33095830    2.48012780
 H                 -2.21116003    1.73106502    1.88086504
 O                 -2.99417597    0.80858767    1.12038454
 H                 -0.13353125    1.37756524    1.98502716
 O                  0.37925440    0.23630975    1.29167571
 H                  1.02291938    0.47142714    0.61935494
 C                 -0.81899742    3.67663630    2.06556022
 H                  0.10440390    4.01453300    2.48752682
 H                 -0.75868278    3.71557959    0.99797155
 H                 -1.61612326    4.30670221    2.40098137

 1 2 1.0 3 1.0 4 1.0 14 1.0
 2
 3
 4
 5 6 1.0 7 1.0 8 1.0 9 1.0
 6
 7
 8
 9 10 1.0 14 0.5 16 0.5
 10 11 1.0
 11
 12 13 0.5 15 0.5 18 1.0
 13 14 0.5
 14
 15 16 0.5
 16 17 1.0
 17
 18 19 1.0 20 1.0 21 1.0
 19
 20
 21

