%nprocshared=8
%nprocl=1
# b3lyp/gen nosymm geom=connectivity counterpoise=2 pseudo=read gfinput

bsse calculation-pc41I C H O=0, I=def2tzvp

0 1 0 1 0 1
 C(Fragment=1)      0.17196600    1.30710500    0.26420800
 C(Fragment=1)      0.50696000    1.96068500   -1.04750100
 H(Fragment=1)     -0.41675900    2.31664600   -1.51676700
 H(Fragment=1)      1.19040500    2.79436500   -0.86284100
 H(Fragment=1)      0.97490300    1.22769800   -1.70993600
 O(Fragment=1)      0.52974700    1.60884600    1.35598500
 I(Fragment=1)     -1.24367600   -0.44814800   -0.00317700
 H(Fragment=2)      4.07604000   -1.89584600    0.19104300
 H(Fragment=2)      3.19995800   -0.85351600    1.35927900
 H(Fragment=2)      4.35394400   -0.13630200    0.20644100
 O(Fragment=2)      2.59093400   -0.66834200   -0.64154000
 H(Fragment=2)      1.89010300   -1.33258500   -0.54987600
 C(Fragment=2)      3.60120800   -0.91656000    0.33920400

 1 2 1.0 6 2.0
 2 3 1.0 4 1.0 5 1.0
 3
 4
 5
 6
 7
 8 13 1.0
 9 13 1.0
 10 13 1.0
 11 13 1.0 12 1.0
 12
 13

C H O 0
6-31+G(d)
****
I 0
Def2TZVP
****

I 0
Def2TZVP


