# b3lyp/genecp geom=connectivity counterpoise=2 gfinput pseudo=read

ts624I BSSE C H O=6-31+g(d)/I=DGDZVP

0 1 0 1 0 1
 C(Fragment=1)     -0.29009200    0.82456400    0.55436800
 O(Fragment=1)     -0.91756700    0.27263900    1.50114100
 I(Fragment=1)      1.62443700   -0.43075100   -0.14164600
 H(Fragment=1)     -0.62647300    2.89765700    1.00208400
 C(Fragment=1)      0.20845800    2.24717400    0.71002200
 H(Fragment=1)      0.67882200    2.61921300   -0.20195200
 H(Fragment=1)      0.94363700    2.25726900    1.51761200
 H(Fragment=2)     -3.59004300   -2.40923300    0.84619500
 H(Fragment=2)     -1.66521500   -0.48499700   -0.59198700
 H(Fragment=2)     -1.59314400   -0.93119400    0.90384000
 C(Fragment=2)     -3.41930400   -1.60201100    0.13153800
 H(Fragment=2)     -3.77175100   -1.90441900   -0.85602700
 H(Fragment=2)     -3.93320300   -0.69275600    0.46093300
 O(Fragment=2)     -1.99401600   -1.38503400    0.03727500
 C(Fragment=2)     -2.08033800    1.70585200   -1.05389200
 H(Fragment=2)     -1.58086000    2.63866200   -1.32710200
 H(Fragment=2)     -2.69028400    1.37086100   -1.89762900
 H(Fragment=2)     -2.71510100    1.86498100   -0.17331600
 O(Fragment=2)     -1.09640400    0.68117800   -0.81686800

 1 2 2.0 5 1.0
 2
 3
 4 5 1.0
 5 7 1.0 6 1.0
 6
 7
 8 11 1.0
 9
 10
 11 14 1.0 13 1.0 12 1.0
 12
 13
 14
 15 19 1.0 16 1.0 17 1.0 18 1.0
 16
 17
 18
 19

C H O 0
6-31+G(d)
****
I 0
DGDZVP
****











