%chk=C:\Users\LawalM\Desktop\CH3F\IR1.chk
# irc=calcfc uhf/6-31g(d) nosymm geom=connectivity

Title Card Required

-1 1
 C                  0.06759100    0.01867000    0.00000400
 H                  0.03641200   -0.50842800   -0.92200400
 H                  0.03634800   -0.50551600    0.92367100
 F                  1.83519700   -0.01783900    0.00000000
 O                 -1.86078100    0.09852100   -0.00001700
 H                 -2.15644200   -0.80646800    0.00007800
 H                  0.04761300    1.08077400   -0.00163400

 1 2 1.0 3 1.0 7 1.0
 2
 3
 4
 5 6 1.0
 6
 7

