%chk=C:\Users\LawalM\Desktop\CH3F\IRC1.chk
# irc=calcfc uhf/6-31g(d) geom=connectivity

Title Card Required

-1 1
 C                 -0.06758100    0.01864400   -0.00002000
 H                 -0.03629200   -0.50709500   -0.92281800
 H                 -0.04770600    1.08072000   -0.00010400
 F                 -1.83515900   -0.01781900    0.00000800
 O                  1.86077700    0.09854700    0.00000900
 H                  2.15608200   -0.80656800    0.00002900
 H                 -0.03637600   -0.50692100    0.92287300

 1 2 1.0 3 1.0 7 1.0
 2
 3
 4
 5 6 1.0
 6
 7

