%chk=C:\Users\214584429\Google Drive\214584429 MONSURAT\ACID CAT\cl-.chk
# opt freq x3lyp/6-31+g(d) geom=connectivity

Title Card Required

-1 1
 Cl                -0.73099415    0.17543859    0.00000000

 1

