%chk=C:\Users\LawalM\Desktop\ACID CAT\h2o.chk
# opt=(calcfc,ts,noeigentest) freq=noraman pm6 geom=connectivity

Title Card Required

0 2
 C                 -1.21226674   -1.69134045    0.40514283
 H                 -0.23236096   -2.08384933    0.23015298
 H                 -1.64372233   -1.38201078   -0.52386805
 H                 -1.82543523   -2.44766240    0.84887870
 C                 -1.11912019   -0.48308674    1.35543052
 O                 -2.33526934    0.23939989    1.75529841
 O                  0.15480210   -0.06252050    1.85055277
 H                  0.49944297    0.63914207    1.29333440
 O                 -4.26953923    1.33373708    3.39283613
 H                 -4.11167022    2.26211273    3.57937310
 H                 -5.08095342    0.91562849    3.69014440
 H                 -3.61599403    0.82347002    2.90899089

 1 2 1.0 3 1.0 4 1.0 5 1.0
 2
 3
 4
 5 6 1.0 7 1.0
 6
 7 8 1.0
 8
 9 10 1.0 11 1.0 12 1.0
 10
 11
 12

