%chk=C:\Users\LawalM\Desktop\ACID CAT\h2o1.chk
# opt=(calcfc,ts,noeigentest) freq=noraman upm6 geom=connectivity

Title Card Required

0 2
 C                 -1.75340900   -1.04407700   -0.12932200
 H                 -2.57021400   -0.68992600   -0.77878300
 H                 -2.21274600   -1.40335100    0.80557200
 H                 -1.27657500   -1.90915400   -0.61414500
 C                 -0.76353100    0.02229400    0.15162500
 O                  0.41430200   -0.07023000    0.49347400
 O                 -1.27026500    1.26561900   -0.17433000
 H                 -0.62430600    1.99242900    0.00513900
 O                  2.66591800   -0.08423000   -0.27644400
 H                  2.45923600    0.57456000    0.49597100
 H                  3.25598200   -0.82364600    0.13340400
 H                  1.59061500   -0.49948800   -0.52257200

 1 2 1.0 3 1.0 4 1.0 5 1.0
 2
 3
 4
 5 6 2.0 7 1.0
 6
 7 8 1.0
 8
 9
 10
 11
 12

