%chk=C:\Users\214584429\Google Drive\214584429 MONSURAT\ACID CAT\hcl.chk
# opt freq x3lyp/6-31+g(d) geom=connectivity

Title Card Required

0 1
 Cl                -0.73099415    0.17543859    0.00000000
 H                 -2.02099415    0.17543859    0.00000000

 1 2 1.0
 2

