%chk=C:\Users\LawalM\Desktop\ACID CAT\hcl1ts41a.chk
# opt=(calcfc,ts,noeigentest) freq=noraman pm6 geom=connectivity

Title Card Required

0 1
 C                 -2.73551400    0.28605300   -0.51151200
 H                 -3.17123300    0.73656200    0.39311600
 H                 -2.72975500    1.05344800   -1.29948300
 H                 -3.40036200   -0.52900900   -0.83888100
 C                 -1.36167800   -0.25633200   -0.24532000
 O                 -1.08406600   -1.47231600   -0.06291800
 C                 -0.18252170    0.08652846    2.31379457
 H                 -0.70736170   -0.87552154    2.41155157
 H                  0.88785830   -0.07993554    2.16945657
 H                 -0.39359570    0.73445946    3.17052157
 O                 -0.72938670    0.80953846    1.18164457
 H                 -0.05968709    1.18064100   -0.05859229
 O                 -0.29026148    0.50181445   -1.43283025
 H                  0.31092852   -0.19901655   -1.77985125
 Cl                 0.80267225   -3.50958795   -0.04085605
 H                 -0.13071734   -1.58387886   -0.04618317

 1 2 1.0 3 1.0 4 1.0 5 1.0
 2
 3
 4
 5 6 2.0
 6 16 1.0
 7 8 1.0 9 1.0 10 1.0 11 1.0
 8
 9
 10
 11
 12
 13 14 1.0
 14
 15
 16

