%chk=C:\Users\214584429\Google Drive\214584429 MONSURAT\ACID CAT\hclcpcm.chk
# freq x3lyp/6-31+g(d) scrf=(cpcm,solvent=methanol) geom=connectivity

Title Card Required

0 1
 Cl                 0.00000000    0.00000000    0.07166700
 H                  0.00000000    0.00000000   -1.21833300

 1 2 1.0
 2

