%nprocshared=8
%nprocl=1
# freq=noraman m062x/def2tzvp geom=connectivity

freq s20

0 1
 H                 -0.93830500   -1.76300000   -0.20994700
 C                 -2.24102900    1.06260600   -1.04310200
 H                 -3.17843900    0.52765600   -1.17014400
 H                 -2.38924600    1.91869200   -0.38800400
 H                 -1.90522900    1.41596800   -2.01532200
 C                 -1.19910100    0.12741600   -0.44380100
 O                 -1.65101800   -1.15585000   -0.48480800
 O                  1.49035700    1.53464800    0.15911000
 H                  0.72806600    0.89253100   -0.70881000
 C                 -1.69768000    0.13667200    1.88307900
 H                 -2.72496400    0.42893700    1.64626700
 H                 -1.65453000   -0.94017100    2.04250100
 H                 -1.37739600    0.64953900    2.78675300
 O                 -0.80519600    0.53423600    0.85785500
 H                  1.15080800    1.07155700    0.92367000
 O                  0.02460800    0.21922500   -1.20713900
 H                  0.54614800   -0.66340200   -0.92037500
 Cl                 1.34429600   -1.91498500    0.02960900
 C                  2.91307200    1.34620100    0.07219600
 H                  3.40883900    2.09323100    0.68902900
 H                  3.17168000    0.33469500    0.37978200
 H                  3.18795900    1.49307100   -0.96913500

 1 7 1.0
 2 3 1.0 4 1.0 5 1.0 6 1.0
 3
 4
 5
 6 7 1.0 14 1.0 16 1.0
 7
 8 15 1.0 19 1.0
 9
 10 11 1.0 12 1.0 13 1.0 14 1.0
 11
 12
 13
 14
 15
 16
 17
 18
 19 20 1.0 21 1.0 22 1.0
 20
 21
 22

