%chk=C:\Users\LawalM\Desktop\CPCE\RCOCl\CLAc.chk
# b3lyp/6-31+g(d) geom=connectivity counterpoise=2

cp clac

0 1 0 2 0 2
 C(Fragment=1)      1.32940100   -1.00082300   -0.00004500
 H(Fragment=1)      1.09949200   -1.60553900    0.88320800
 H(Fragment=1)      2.38364200   -0.71452900   -0.00059500
 H(Fragment=1)      1.09868600   -1.60614400   -0.88266400
 C(Fragment=1)      0.48009000    0.24013300   -0.00001400
 O(Fragment=1)      0.84382600    1.37305400   -0.00023600
 Cl(Fragment=2)    -1.30525800   -0.14671000    0.00013500

 1 2 1.0 3 1.0 4 1.0 5 1.0
 2
 3
 4
 5 6 2.0 7 1.0
 6
 7

