%chk=C:\Users\LawalM\Desktop\CPCE\RCOF\FAC cp.chk
# b3lyp/6-31+g(d) geom=connectivity counterpoise=2

fac cp

0 1 0 2 0 2
 C(Fragment=1)     -1.19373776   -0.00978390    0.00012808
 H(Fragment=1)     -0.83708333   -1.01859390    0.00012808
 H(Fragment=1)     -0.83706492    0.49461429   -0.87352343
 H(Fragment=1)     -2.26373776   -0.00977071    0.00012808
 C(Fragment=1)     -0.68039554    0.71617238    1.25753305
 O(Fragment=1)     -0.98176591    1.92090608    1.46091240
 F(Fragment=2)      0.09558297    0.05787589    2.14466499

 1 2 1.0 3 1.0 4 1.0 5 1.0
 2
 3
 4
 5 6 2.0 7 1.0
 6
 7

