%nprocshared=8
%nprocl=1
# b3lyp/6-31+g(d) geom=connectivity counterpoise=3

cp pc612

0 1 0 1 0 1 0 1
 H(Fragment=2)     -1.45241700    0.93367200    0.21535600
 H(Fragment=2)     -3.46051700   -2.29841500   -0.26618600
 H(Fragment=2)     -4.01724800   -0.74675300    0.40820500
 O(Fragment=2)     -2.17443600   -0.65584400   -0.44296600
 C(Fragment=2)     -3.15198800   -1.40216200    0.28690500
 H(Fragment=2)     -2.78132600   -1.69227800    1.27873800
 O(Fragment=1)     -0.88696400    1.66908000    0.53005100
 O(Fragment=1)      2.09960700    0.42839300   -1.22451100
 C(Fragment=1)      1.88318700   -0.03207700   -0.15481100
 H(Fragment=1)     -0.74825000    2.55641900   -1.36541200
 C(Fragment=1)      2.10422800    0.56197500    1.20052400
 H(Fragment=1)      2.42820700   -0.19027300    1.92149100
 H(Fragment=1)      2.83426000    1.37148600    1.11615000
 H(Fragment=1)      1.13715700    0.97865300    1.51452000
 C(Fragment=1)     -1.05497000    2.78690600   -0.33525400
 H(Fragment=1)     -2.09536400    3.14262300   -0.34375500
 H(Fragment=1)     -0.41833800    3.58991800    0.04749100
 H(Fragment=3)     -1.37851400   -1.20094300   -0.56469000
 Cl(Fragment=3)     1.11552600   -1.73323500   -0.04980500

 1 7 1.0
 2 5 1.0
 3 5 1.0
 4 5 1.0 18 1.0
 5 6 1.0
 6
 7 15 1.0
 8 9 2.0
 9 11 1.0
 10 15 1.0
 11 12 1.0 13 1.0 14 1.0
 12
 13
 14
 15 16 1.0 17 1.0
 16
 17
 18
 19

