%nprocshared=8
%nprocl=1
# b3lyp/gen geom=connectivity counterpoise=3 gfinput pseudo=read

gen calculation- pc612I  C H O=6-31+g(d)/I=Def2TZVP

0 1 0 1 0 1 0 1
 C(Fragment=1)      0.76560100    1.65498600   -0.07740200
 O(Fragment=1)      0.93870000    2.29268200   -1.05953600
 C(Fragment=1)      0.01269800    2.00907500    1.16910900
 H(Fragment=1)     -0.99514100    1.57042100    1.08469900
 H(Fragment=1)     -0.07971400    3.09928600    1.22230100
 H(Fragment=1)      0.50654900    1.60996900    2.05629300
 I(Fragment=1)      1.62751000   -0.45091500    0.00082800
 H(Fragment=2)     -1.59433400   -3.71198900   -0.20496600
 O(Fragment=2)     -1.92267500   -1.67030000   -0.52982200
 H(Fragment=2)     -0.97007000   -1.47201400   -0.59520600
 H(Fragment=2)     -3.17341900   -3.05040100    0.28571900
 H(Fragment=2)     -1.73030700   -2.71680400    1.27969000
 C(Fragment=2)     -2.09944700   -2.85329800    0.25490800
 H(Fragment=3)     -2.68246200   -0.10776100    0.07039000
 C(Fragment=3)     -3.94974600    1.34595700   -0.37714100
 H(Fragment=3)     -4.86102200    0.73065700   -0.36440800
 H(Fragment=3)     -4.18781400    2.32477800    0.04915100
 H(Fragment=3)     -3.62894600    1.48463200   -1.41976100
 O(Fragment=3)     -2.92052500    0.77729300    0.42378000

 1 2 2.0 3 1.0
 2
 3 6 1.0 5 1.0 4 1.0
 4
 5
 6
 7
 8 13 1.0
 9 13 1.0 10 1.0
 10
 11 13 1.0
 12 13 1.0
 13
 14 19 1.0
 15 19 1.0 16 1.0 17 1.0 18 1.0
 16
 17
 18
 19

C H O 0
6-31+G(d)
****
I 0
Def2TZVP
****

I 0
Def2TZVP





