%nprocshared=8
%nprocl=1
# b3lyp/6-31+g(d) nosymm geom=connectivity counterpoise=2

cp ts41

0 1 0 1 0 1
 C(Fragment=1)      0.56648200   -0.18077600    0.30404400
 C(Fragment=1)      1.63548300   -0.75706700   -0.53513500
 H(Fragment=1)      2.58407200   -0.20161600   -0.40867800
 H(Fragment=1)      1.82200300   -1.80651300   -0.25173200
 H(Fragment=1)      1.39561400   -0.73927100   -1.61309600
 O(Fragment=1)      0.23199100   -0.20064500    1.44556500
 C(Fragment=1)     -2.02059100   -0.33461400   -0.08243300
 H(Fragment=1)     -2.19013900   -1.41503500   -0.13980000
 H(Fragment=1)     -2.76361400    0.21672900   -0.66355100
 H(Fragment=1)     -1.99310700   -0.00044800    0.96558900
 O(Fragment=1)     -0.73318900   -0.11022500   -0.71733900
 H(Fragment=2)     -0.52405700    1.08279000   -0.78682200
 F(Fragment=2)      0.51006300    1.44278500   -0.11628600

 1 2 1.0 6 2.0
 2 3 1.0 4 1.0 5 1.0
 3
 4
 5
 6
 7 8 1.0 9 1.0 10 1.0 11 1.0
 8
 9
 10
 11
 12
 13

