%chk=C:\Users\LawalM\Desktop\CPCE\RCOCl\ts612a.chk
# b3lyp/6-31+g(d) geom=connectivity counterpoise=3

cp ts612

0 1 0 1 0 1 0 1
 C(Fragment=1)      1.37712200   -0.10863700    0.51773100
 Cl(Fragment=1)     0.09719900   -1.49916400   -1.07669300
 O(Fragment=1)      2.45319100    0.07681200    0.06956800
 H(Fragment=1)     -0.17783600   -0.85740300    1.81445500
 H(Fragment=1)      1.29525900   -0.22972700    2.61912100
 C(Fragment=1)      0.90721900   -0.79369200    1.76098700
 H(Fragment=1)      1.32659300   -1.80149600    1.76271000
 H(Fragment=2)      0.69231800    1.43245800   -1.73453600
 H(Fragment=2)      1.74401700    2.39755700   -0.64363600
 H(Fragment=2)      0.02400100    2.86391700   -0.86013400
 O(Fragment=2)      0.35749300    1.21294100    0.31433600
 C(Fragment=2)      0.73357100    2.03604100   -0.82510800
 H(Fragment=2)     -0.62394700    0.91048900    0.19215100
 H(Fragment=3)     -3.37316600    0.99144900    1.16003300
 H(Fragment=3)     -3.96245600   -0.24475400    0.01874600
 H(Fragment=3)     -2.81695000   -0.70131400    1.31428500
 C(Fragment=3)     -3.10136600    0.08879900    0.60791200
 H(Fragment=3)     -1.64405800   -0.37931000   -0.70372800
 O(Fragment=3)     -2.01511400    0.43135600   -0.25950500

 1 6 1.0 3 2.0
 2
 3
 4 6 1.0
 5 6 1.0
 6 7 1.0
 7
 8 12 1.0
 9 12 1.0
 10 12 1.0
 11 12 1.0
 12
 13
 14 17 1.0
 15 17 1.0
 16 17 1.0
 17 19 1.0
 18 19 1.0
 19

