%nprocshared=8
%nprocl=1
# b3lyp/gen geom=connectivity counterpoise=3 gfinput pseudo=read

gen calculation-ts612Ifreq C H O=6-31+g(d)/I=def2tzvp CP

0 1 0 1 0 1 0 1
 C(Fragment=1)      0.76524300   -1.53225800    0.57938500
 O(Fragment=1)      0.64344800   -2.59427000    0.07859700
 C(Fragment=1)      0.90105500   -1.08332400    2.00102000
 H(Fragment=1)      0.94341500    0.00061000    2.08761100
 H(Fragment=1)      0.03379200   -1.45471200    2.55118200
 H(Fragment=1)      1.81781600   -1.53429100    2.40450900
 I(Fragment=1)     -1.48321500    0.13368700   -0.14232500
 H(Fragment=2)      2.68036800    2.99105500    0.72235800
 H(Fragment=2)      1.11081800    2.80843800    1.56094900
 H(Fragment=2)      0.30046000    1.79471700   -0.36882500
 H(Fragment=2)      1.27855900    3.96605300    0.20750600
 O(Fragment=2)      1.28042300    1.96079400   -0.34996200
 C(Fragment=2)      1.59565800    2.99106800    0.59375600
 O(Fragment=3)      1.91629900   -0.55635300   -0.28071200
 C(Fragment=3)      2.04001400   -0.95086800   -1.67193500
 H(Fragment=3)      2.45965400   -1.95565600   -1.68940300
 H(Fragment=3)      1.05495100   -0.93037100   -2.14592300
 H(Fragment=3)      2.71966100   -0.24053200   -2.14615800
 H(Fragment=3)      1.67772000    0.44019700   -0.23733200

 1 2 2.0 3 1.0
 2
 3 4 1.0 5 1.0 6 1.0
 4
 5
 6
 7
 8 13 1.0
 9 13 1.0
 10 12 1.0
 11 13 1.0
 12 13 1.0
 13
 14 15 1.0
 15 16 1.0 17 1.0 18 1.0
 16
 17
 18
 19

C H O 0
6-31+G(d)
****
I 0
Def2TZVP
****

I 0
Def2TZVP


