%chk=C:\Users\LawalM\Desktop\CPCE\RCOF\ts612.chk
# b3lyp/6-31+g(d) geom=connectivity counterpoise=3

Title Card Required

0 1 0 1 0 1 0 1
 C(Fragment=1)      1.25145600   -0.44512500    0.06825600
 O(Fragment=1)      2.24909800   -0.13605400   -0.49449100
 C(Fragment=1)      0.95533400   -1.60466600    0.96752500
 H(Fragment=1)     -0.09797800   -1.65950100    1.24003800
 H(Fragment=1)      1.56269100   -1.49757200    1.87432900
 H(Fragment=1)      1.24122700   -2.51784300    0.44247900
 O(Fragment=1)      0.37416700    0.80101000    0.61078200
 H(Fragment=1)      0.16944000    2.83485600    0.53057900
 C(Fragment=1)      0.83316800    2.08107800    0.10365700
 H(Fragment=1)      1.85737000    2.23194400    0.44220000
 H(Fragment=1)      0.78956600    2.09032400   -0.98739500
 H(Fragment=2)     -2.62019200   -1.12881200    0.84185500
 C(Fragment=2)     -2.93285200   -0.21014100    0.32855500
 O(Fragment=2)     -1.83560100    0.41539000   -0.34209700
 H(Fragment=2)     -0.69077400    0.66552500    0.31872000
 H(Fragment=2)     -3.71453100   -0.45313500   -0.39850800
 H(Fragment=2)     -3.33144600    0.49793200    1.05991700
 F(Fragment=3)     -0.09112900   -0.93081400   -1.27083500
 H(Fragment=3)     -1.28916100   -0.25604000   -0.92819600

 1 2 2.0 3 1.0
 2
 3 6 1.0 5 1.0 4 1.0
 4
 5
 6
 7 9 1.0
 8 9 1.0
 9 10 1.0 11 1.0
 10
 11
 12 13 1.0
 13 14 1.0 17 1.0 16 1.0
 14
 15
 16
 17
 18
 19

