%nprocshared=8
%nprocl=1
# b3lyp/gen geom=connectivity counterpoise=2 gfinput pseudo=read

ts624Br bsse C H O=6-31+G(d)/Br=DGDZVP

0 1 0 1 0 1
 C(Fragment=1)      0.27680600    0.64696700    0.53011500
 O(Fragment=1)     -0.42009800    0.20859500    1.49002100
 Br(Fragment=1)     1.63539100   -0.77169400   -0.24326100
 C(Fragment=1)      1.06401400    1.92957900    0.69000300
 H(Fragment=1)      1.82960700    1.75648900    1.45014900
 H(Fragment=1)      0.40221800    2.72799900    1.04579900
 H(Fragment=1)      1.54966400    2.22186400   -0.24296400
 H(Fragment=2)     -3.60010700   -0.21983700    0.54701100
 H(Fragment=2)     -1.36440400   -0.31452800   -0.60992600
 H(Fragment=2)     -1.30047500   -0.82218400    0.87380000
 O(Fragment=2)     -1.80668800   -1.17254700    0.00666400
 C(Fragment=2)     -3.24198100   -1.17797800    0.15558500
 H(Fragment=2)     -3.50579200   -1.98499500    0.84185100
 H(Fragment=2)     -3.67502300   -1.37496600   -0.82670600
 C(Fragment=2)     -1.42403200    1.93604500   -0.90403300
 H(Fragment=2)     -0.79557900    2.79716400   -1.14681100
 H(Fragment=2)     -2.13672000    1.77892600   -1.71912300
 H(Fragment=2)     -1.96518600    2.12267700    0.03238800
 O(Fragment=2)     -0.61393100    0.75307700   -0.81685500

 1 2 2.0 4 1.0
 2
 3
 4 5 1.0 7 1.0 6 1.0
 5
 6
 7
 8 12 1.0
 9
 10
 11 12 1.0
 12 14 1.0 13 1.0
 13
 14
 15 19 1.0 16 1.0 17 1.0 18 1.0
 16
 17
 18
 19

C H O 0
6-31+G(d)
****
Br 0
DGDZVP
****









