%nprocshared=8
%nprocl=1
# b3lyp/gen geom=connectivity counterpoise=2 gfinput pseudo=read

ts624Br-6-31+g(d)/def2tzvp bsse

0 1 0 1 0 1
 H(Fragment=2)     -1.99869800    2.09959200    0.03160600
 H(Fragment=2)     -2.16785500    1.75104000   -1.71972100
 O(Fragment=2)     -0.63572700    0.73940400   -0.81655500
 O(Fragment=2)     -1.81783100   -1.19310300   -0.00017000
 C(Fragment=2)     -3.25215500   -1.19489500    0.15671100
 H(Fragment=2)     -3.69212200   -1.38806500   -0.82339800
 H(Fragment=2)     -3.51555200   -2.00274400    0.84236900
 H(Fragment=2)     -3.60587200   -0.23680100    0.55270400
 H(Fragment=2)     -1.37409800   -0.32479000   -0.61299900
 H(Fragment=2)     -1.30840100   -0.84290500    0.86568800
 H(Fragment=2)     -0.83491400    2.78177000   -1.14974200
 C(Fragment=2)     -1.45693700    1.91690000   -0.90500600
 H(Fragment=1)      1.50072700    2.26529000   -0.22816100
 H(Fragment=1)      0.33544500    2.72544600    1.06062400
 H(Fragment=1)      1.78371100    1.78498700    1.45990200
 C(Fragment=1)      1.01779700    1.94735300    0.69792500
 O(Fragment=1)     -0.43021500    0.18807100    1.47727000
 C(Fragment=1)      0.25817500    0.64825000    0.52119100
 Br(Fragment=1)     1.67275800   -0.75409800   -0.23966200

 1 12 1.0
 2 12 1.0
 3 12 1.0
 4 5 1.0
 5 6 1.0 7 1.0 8 1.0
 6
 7
 8
 9
 10
 11 12 1.0
 12
 13 16 1.0
 14 16 1.0
 15 16 1.0
 16 18 1.0
 17 18 2.0
 18
 19

C H O 0
6-31+G(d)
****
Br 0
Def2TZVP
****

Br 0
Def2TZVP





