%nprocshared=8
%nprocl=1
# b3lyp/6-31+g(d) nosymm geom=connectivity counterpoise=2

pc41 cp

0 1 0 1 0 1
 C(Fragment=1)      0.62800700   -0.30225100    0.21028200
 C(Fragment=1)      1.65920400   -0.38277500   -0.86551800
 H(Fragment=1)      2.63526200   -0.29982000   -0.37538100
 H(Fragment=1)      1.58653900   -1.35395000   -1.36344400
 H(Fragment=1)      1.55094100    0.42542400   -1.58634800
 O(Fragment=1)      0.29747800   -1.05121600    1.06109300
 C(Fragment=1)     -2.14409100   -0.25467600   -0.21531800
 H(Fragment=1)     -2.37943000   -1.21469200   -0.67717100
 H(Fragment=1)     -2.94395400    0.46138700   -0.42619400
 H(Fragment=1)     -2.02177900   -0.38159000    0.86551400
 O(Fragment=1)     -0.92928600    0.21300000   -0.81284400
 H(Fragment=2)     -0.72726400    1.11273900   -0.47173300
 F(Fragment=2)      0.56301600    1.36554700    0.55460600

 1 2 1.0 6 2.0
 2 3 1.0 4 1.0 5 1.0
 3
 4
 5
 6
 7 8 1.0 9 1.0 10 1.0 11 1.0
 8
 9
 10
 11 12 1.0
 12
 13

