%chk=C:\Users\LawalM\Desktop\CPCE\RCOF\PC612.chk
# b3lyp/6-31+g(d) geom=connectivity counterpoise=3

pc 612 cp

0 1 0 1 0 1 0 1
 C(Fragment=1)      1.81164000   -0.59378800   -0.16982800
 O(Fragment=1)      2.12653300   -0.39418800   -1.29680200
 O(Fragment=1)     -0.54962200    1.57646600    0.52165700
 C(Fragment=1)     -0.69185100    2.70652900   -0.33034500
 H(Fragment=1)      1.46343400    0.66641000    1.46784800
 H(Fragment=1)     -1.71804400    3.10216000   -0.31650500
 H(Fragment=1)     -0.01803700    3.48219100    0.04544700
 H(Fragment=1)     -0.41529400    2.47433400   -1.36892600
 C(Fragment=1)      2.27530600    0.02350000    1.10572300
 H(Fragment=1)      2.47611100   -0.74675900    1.85608500
 H(Fragment=1)      3.16742400    0.62312000    0.91838000
 C(Fragment=2)     -2.96510900   -1.30577400    0.29286600
 H(Fragment=2)     -1.13599600    0.85912100    0.20086400
 H(Fragment=2)     -3.28186800   -2.24610600   -0.17614600
 O(Fragment=2)     -1.93693700   -0.66876500   -0.46937800
 H(Fragment=2)     -2.64245800   -1.50146900    1.32408200
 H(Fragment=2)     -3.81284500   -0.61724100    0.31039700
 H(Fragment=3)     -1.15524200   -1.24491800   -0.50177600
 F(Fragment=3)      0.81923300   -1.54908300    0.08954900

 1 2 2.0 9 1.0 19 1.0
 2
 3 13 1.0 4 1.0
 4 6 1.0 7 1.0 8 1.0
 5 9 1.0
 6
 7
 8
 9 10 1.0 11 1.0
 10
 11
 12 15 1.0 16 1.0 17 1.0 14 1.0
 13
 14
 15 18 1.0
 16
 17
 18
 19

