# b3lyp/gen geom=connectivity counterpoise=2 gfinput pseudo=read

ts624F bsse C H O=6-31+g(d)/F=DGDZVP

0 1 0 1 0 1
 C(Fragment=1)      1.01005300   -0.41585600    0.14309100
 O(Fragment=1)      0.23847700   -0.87356700    1.04957900
 F(Fragment=1)      1.17649300   -1.28186300   -0.95436600
 C(Fragment=1)      2.36102100    0.14879600    0.51791700
 H(Fragment=1)      2.26394900    0.87744400    1.32633000
 H(Fragment=1)      2.97292600   -0.68302000    0.88053500
 H(Fragment=1)      2.85474800    0.60147500   -0.34553400
 H(Fragment=2)     -3.52918500   -0.91072900    0.66448400
 H(Fragment=2)     -0.95575100    0.17276500   -0.68052900
 H(Fragment=2)     -1.01506700   -0.96656400    0.42006800
 O(Fragment=2)     -1.74309000   -0.61060400   -0.31965800
 H(Fragment=2)     -2.70172800    0.61832500    1.08761700
 H(Fragment=2)     -3.50718100    0.43512300   -0.50504100
 C(Fragment=2)     -2.93905200   -0.07782800    0.27458800
 C(Fragment=2)      0.11258900    2.02864400   -0.05461000
 H(Fragment=2)      1.07178700    2.54858700   -0.13686600
 H(Fragment=2)     -0.65215400    2.62272400   -0.56527800
 H(Fragment=2)     -0.15614900    1.91470500    1.00418200
 O(Fragment=2)      0.19182500    0.75959500   -0.71074400

 1 2 2.0 4 1.0 3 1.0
 2
 3
 4 6 1.0 7 1.0 5 1.0
 5
 6
 7
 8 14 1.0
 9
 10
 11 14 1.0
 12 14 1.0
 13 14 1.0
 14
 15 19 1.0 16 1.0 17 1.0 18 1.0
 16
 17
 18
 19

C H O 0
6-31+G(d)
****
F 0
DGDZVP
****












