%nprocshared=8
%nprocl=1
# b3lyp/aug-cc-pvtz geom=connectivity counterpoise=2

ts624-ccpvtz

0 1 0 1 0 1
 C(Fragment=1)      1.01233200   -0.42820000    0.13693500
 O(Fragment=1)      0.22920400   -0.90710800    1.01288200
 F(Fragment=1)      1.20826400   -1.25423100   -0.96726700
 H(Fragment=1)      2.20817500    0.86284400    1.36514200
 C(Fragment=1)      2.33811000    0.15260100    0.55273100
 H(Fragment=1)      2.95010100   -0.67229800    0.91553900
 H(Fragment=1)      2.84222500    0.62340500   -0.28768900
 H(Fragment=2)     -3.49632300    0.45417300   -0.46929500
 H(Fragment=2)     -0.94414100    0.19077900   -0.66369000
 H(Fragment=2)     -0.98199700   -0.95664200    0.40814400
 C(Fragment=2)     -2.93088600   -0.09626900    0.28028400
 H(Fragment=2)     -3.52923300   -0.93550300    0.63021700
 H(Fragment=2)     -2.70439400    0.55980600    1.12311700
 O(Fragment=2)     -1.73641700   -0.60231000   -0.32443400
 C(Fragment=2)      0.10392700    2.03220300   -0.04916800
 H(Fragment=2)      1.05577700    2.55624800   -0.12736300
 H(Fragment=2)     -0.66038500    2.62911300   -0.54708400
 H(Fragment=2)     -0.16132200    1.91806300    1.00567000
 O(Fragment=2)      0.18299300    0.77142700   -0.70994900

 1 2 2.0 5 1.0 3 1.0
 2
 3
 4 5 1.0
 5 6 1.0 7 1.0
 6
 7
 8 11 1.0
 9
 10
 11 14 1.0 12 1.0 13 1.0
 12
 13
 14
 15 19 1.0 16 1.0 17 1.0 18 1.0
 16
 17
 18
 19

