%chk=C:\Users\LawalM\Desktop\RCOOH\HACcp.chk
# b3lyp/6-31+g(d) geom=connectivity counterpoise=2

Title Card Required

0 1 0 2 0 2
 O(Fragment=1)     -0.96371200   -0.93575900    0.00081900
 H(Fragment=1)     -0.46785700   -1.76983100   -0.00223800
 C(Fragment=2)     -0.11969500    0.13563100   -0.00245500
 C(Fragment=2)      1.37144200   -0.16084500   -0.00044900
 H(Fragment=2)      1.80432300    0.23908000    0.92231000
 H(Fragment=2)      1.61951100   -1.22446200   -0.07434200
 H(Fragment=2)      1.83375100    0.37114400   -0.83719300
 O(Fragment=2)     -0.57381400    1.25267800    0.00029200

 1 2 1.0 3 1.0
 2
 3 4 1.0 8 2.0
 4 5 1.0 6 1.0 7 1.0
 5
 6
 7
 8

