%chk=C:\Users\LawalM\Desktop\RCOOH\MEOACcp.chk
# b3lyp/6-31+g(d) geom=connectivity counterpoise=2

Title Card Required

0 1 0 2 0 2
 C(Fragment=1)     -1.80508500   -0.52526300    0.00018300
 H(Fragment=1)     -1.70688400   -1.61225700   -0.01651400
 H(Fragment=1)     -2.36062000   -0.21803100    0.89250000
 H(Fragment=1)     -2.37630700   -0.19066200   -0.87191700
 C(Fragment=1)     -0.46157200    0.16495200   -0.00064400
 O(Fragment=1)     -0.29985900    1.36849400   -0.00006900
 O(Fragment=2)      0.56176200   -0.72066200   -0.00082200
 C(Fragment=2)      1.88550000   -0.15300200    0.00054400
 H(Fragment=2)      2.56493000   -1.00582700    0.00078900
 H(Fragment=2)      2.03605200    0.46231600   -0.89052700
 H(Fragment=2)      2.03455500    0.46168300    0.89230100

 1 2 1.0 3 1.0 4 1.0 5 1.0
 2
 3
 4
 5 6 2.0 7 1.0
 6
 7 8 1.0
 8 9 1.0 10 1.0 11 1.0
 9
 10
 11

