%chk=C:\Users\LawalM\Desktop\RCOOH\pc41f2.chk
# b3lyp/6-31+g(d) geom=connectivity counterpoise=2

pc41 cp

0 1 0 1 0 1
 C(Fragment=1)      1.57065000    0.08209600    0.00269900
 C(Fragment=1)      1.26933000   -1.37329300   -0.21538900
 H(Fragment=1)      1.18137400   -1.59066100   -1.28527000
 H(Fragment=1)      2.06262300   -1.97560100    0.22892500
 H(Fragment=1)      0.30605800   -1.61967100    0.24719500
 O(Fragment=1)      2.46026700    0.55643900    0.67506200
 C(Fragment=1)     -3.23266400    0.17784200    0.12545500
 H(Fragment=1)     -3.88174300   -0.55053200    0.61820300
 H(Fragment=1)     -3.56685100    0.29573900   -0.91569100
 H(Fragment=1)     -3.33329000    1.14171400    0.64572800
 O(Fragment=1)     -1.90740000   -0.33515700    0.20500900
 H(Fragment=2)     -1.29129600    0.28158800   -0.22246200
 O(Fragment=2)      0.69011300    0.88929200   -0.67067900
 H(Fragment=2)      0.93538100    1.81295800   -0.46835900

 1 2 1.0 6 2.0 13 1.0
 2 3 1.0 4 1.0 5 1.0
 3
 4
 5
 6
 7 8 1.0 9 1.0 10 1.0 11 1.0
 8
 9
 10
 11 12 1.0
 12
 13 14 1.0
 14

