%chk=C:\Users\LawalM\Desktop\RCOOH\PC612c.chk
# b3lyp/6-31+g(d) nosymm geom=connectivity counterpoise=3

pc612 cp

0 1 0 1 0 1 0 1
 C(Fragment=1)      1.97673300   -0.37407000   -0.04853800
 C(Fragment=1)      1.74650000   -0.03328800    1.39315000
 H(Fragment=1)      1.46541300   -0.91809900    1.97154100
 H(Fragment=1)      2.64833600    0.42227400    1.80584500
 H(Fragment=1)      0.92089600    0.68888600    1.43716200
 O(Fragment=1)     -0.94161900    1.62481500    0.41902900
 O(Fragment=1)      2.81107000    0.10078100   -0.78308100
 H(Fragment=1)     -0.58164800    3.56755600   -0.05571100
 H(Fragment=1)     -1.07437500    2.57271300   -1.44716400
 H(Fragment=1)     -2.28679800    3.09223900   -0.23928600
 C(Fragment=1)     -1.24647100    2.76042700   -0.37690900
 H(Fragment=2)     -1.46660200    0.85413600    0.11851200
 H(Fragment=2)     -3.65473900   -1.53796100    0.05599500
 O(Fragment=2)     -1.76835200   -0.92429600   -0.38755900
 C(Fragment=2)     -2.63129400   -1.88097100    0.22536800
 H(Fragment=2)     -2.45625100   -1.95254700    1.30762800
 H(Fragment=2)     -2.51321800   -2.87424300   -0.22779400
 H(Fragment=3)     -0.83789900   -1.19623700   -0.28763900
 O(Fragment=3)      1.08300400   -1.31448900   -0.51545600
 H(Fragment=3)      1.29125700   -1.44579600   -1.46098300

 1 2 1.0 7 2.0 19 1.0
 2 3 1.0 4 1.0 5 1.0
 3
 4
 5
 6 12 1.0 11 1.0
 7
 8 11 1.0
 9 11 1.0
 10 11 1.0
 11
 12
 13 15 1.0
 14 18 1.0 15 1.0
 15 16 1.0 17 1.0
 16
 17
 18
 19 20 1.0
 20

