%nprocshared=8
%nprocl=1
# freq b3lyp/6-31+g(d) geom=connectivity counterpoise=2

freq-s15

0 1 0 1 0 1
 C(Fragment=1)      1.62082800   -0.72663300   -0.15832000
 C(Fragment=1)      1.57696400   -0.98504800    1.31914800
 H(Fragment=1)      1.95558400   -1.99601900    1.51576000
 H(Fragment=1)      2.20395400   -0.25272100    1.82781800
 H(Fragment=1)      0.55238900   -0.92296500    1.69505000
 O(Fragment=1)      2.44351000   -0.08792000   -0.77241300
 O(Fragment=1)      0.61238800   -1.39947400   -0.81814300
 H(Fragment=1)      0.70705300   -1.19836400   -1.76945500
 C(Fragment=2)     -3.27745100   -0.76501600   -0.19672600
 H(Fragment=2)     -3.98699700   -0.22458100    0.43450700
 H(Fragment=2)     -3.37806000   -0.40467300   -1.23044500
 H(Fragment=2)     -3.52232500   -1.83521500   -0.16233600
 H(Fragment=2)     -1.30877300   -1.01494400   -0.16328600
 H(Fragment=2)     -0.87595800    1.10805000    0.58183900
 C(Fragment=2)     -0.05552000    2.69887500   -0.25661000
 H(Fragment=2)     -0.65993700    3.50063400    0.19484100
 H(Fragment=2)      0.97149700    3.05698100   -0.36970800
 H(Fragment=2)     -0.45658600    2.47760400   -1.25773100
 O(Fragment=2)     -0.00231100    1.54291200    0.56644000
 O(Fragment=2)     -1.97743300   -0.50887500    0.33138900

 1 2 1.0 6 2.0 7 1.0
 2 3 1.0 4 1.0 5 1.0
 3
 4
 5
 6
 7 8 1.0
 8
 9 20 1.0 10 1.0 11 1.0 12 1.0
 10
 11
 12
 13 20 1.0
 14 19 1.0
 15 19 1.0 16 1.0 17 1.0 18 1.0
 16
 17
 18
 19
 20

