%chk=C:\Users\LawalM\Desktop\CPCE\RCOOH\ts41.chk
# b3lyp/6-31+g(d) geom=connectivity counterpoise=2

ts41 cp

0 1 0 1 0 1
 C(Fragment=1)      0.58411400   -0.23478000    0.26278100
 C(Fragment=1)      1.57784000   -0.76078500   -0.72549500
 H(Fragment=1)      2.58170600   -0.62494500   -0.31160900
 H(Fragment=1)      1.38794000   -1.83008100   -0.86379700
 H(Fragment=1)      1.49980400   -0.24613300   -1.68233900
 O(Fragment=1)      0.36933800   -0.54220300    1.39745800
 C(Fragment=1)     -2.09426100   -0.27995200   -0.06649500
 H(Fragment=1)     -2.48205100   -1.21341100   -0.48696600
 H(Fragment=1)     -2.81984100    0.52256800   -0.23858900
 H(Fragment=1)     -1.93355700   -0.40491300    1.01238000
 O(Fragment=1)     -0.86856700    0.04541300   -0.71893600
 H(Fragment=2)     -0.39000100    1.13531600   -0.48927800
 O(Fragment=2)      0.65461000    1.54563800   -0.00862000
 H(Fragment=2)      0.50679000    1.92391400    0.87623500

 1 2 1.0 6 2.0
 2 3 1.0 4 1.0 5 1.0
 3
 4
 5
 6
 7 8 1.0 9 1.0 10 1.0 11 1.0
 8
 9
 10
 11
 12
 13 14 1.0
 14

