%chk=C:\Users\LawalM\Desktop\CPCE\RCOOH\ts612.chk
# b3lyp/6-31+g(d) geom=connectivity counterpoise=3

cp ts612

0 1 0 1 0 1 0 1
 H(Fragment=1)     -0.35506300   -1.01425100    1.91040000
 H(Fragment=1)      1.10685900   -0.52914900    0.87459300
 O(Fragment=1)      0.02380500   -1.15931300    1.02527600
 H(Fragment=2)      0.95063900    0.70354500   -0.12747200
 O(Fragment=2)      1.84192300    0.27978000    0.46256500
 C(Fragment=2)      2.91743800   -0.22229200   -0.33993800
 H(Fragment=2)      2.55311500   -0.91334400   -1.11066800
 H(Fragment=2)      3.42336200    0.62170900   -0.81733200
 H(Fragment=2)      3.62390300   -0.74424600    0.31144900
 O(Fragment=3)     -0.25882300    0.87675800   -0.51615600
 O(Fragment=3)     -2.14854300   -0.15549100    0.65324900
 C(Fragment=3)     -1.11935200   -1.36571000   -1.19370600
 H(Fragment=3)     -0.10554500   -1.48253400   -1.58204700
 H(Fragment=3)     -1.51343900   -2.34622700   -0.91162200
 H(Fragment=3)     -1.75274100   -0.92994000   -1.97186900
 C(Fragment=3)     -1.16529100   -0.46393200    0.01571600
 C(Fragment=3)     -0.77661600    2.13905100   -0.08756300
 H(Fragment=3)     -0.87424200    2.79263400   -0.96093100
 H(Fragment=3)     -1.75714200    1.98353200    0.37335600
 H(Fragment=3)     -0.10368300    2.60169000    0.64562500

 1 3 1.0
 2
 3
 4
 5 6 1.0
 6 7 1.0 8 1.0 9 1.0
 7
 8
 9
 10 17 1.0
 11 16 2.0
 12 16 1.0 13 1.0 14 1.0 15 1.0
 13
 14
 15
 16
 17 18 1.0 19 1.0 20 1.0
 18
 19
 20

